%nprocshared=12
%mem=24GB
# opt int=grid=ultrafine M06 gen pseudo=read

Title

-1 1
Ir            -0.00610000000000     0.03979999999998     -0.35500000000000
C            -0.05869999999997     -0.31159999999998     -2.53029999999997
C            0.56839999999995     0.60609999999999     -3.57980000000001
H            0.55739999999999     0.09420000000000     -4.55870000000001
C            -0.11169999999992     1.95669999999997     -3.74719999999996
C            0.53709999999986     2.86520000000001     -4.78499999999999
H            -0.11469999999997     2.47700000000001     -2.77479999999996
H            -1.17449999999997     1.80330000000001     -4.00740000000000
H            0.06040000000001     3.85770000000000     -4.75060000000000
H            1.59390000000001     3.03170000000000     -4.51280000000001
H            1.63219999999993     0.79380000000001     -3.36090000000000
H            -0.00489999999998     1.41510000000000     -1.06200000000000
H            -1.10519999999997     -0.46680000000001     -2.83879999999998
H            0.41150000000001     -1.30760000000001     -2.63099999999999
C            0.46970000000005     2.34590000000003     -6.21549999999993
H            1.02540000000006     1.40090000000002     -6.29670000000001
H            -0.57609999999988     2.10170000000004     -6.46029999999999
C            1.01840000000003     3.34689999999997     -7.21860000000000
H            0.97750000000002     2.96740000000002     -8.24560000000000
H            0.45260000000005     4.28700000000009     -7.18789999999999
H            2.06529999999991     3.59100000000002     -6.99629999999998
P            2.04599999999996     0.00000000000004     -0.00000000000006
N            -0.04929999999984     0.00000000000004     2.23149999999968
N            -1.31552615279827     -0.00187848359970     2.64855468706814
N            -3.51275682425999     0.03975111528358     2.20591920105891
H            -3.57218631056415     0.17128102513354     3.20565011094664
C            2.92227472318144     0.20647851740318     1.60233145732210
C            2.30329057658742     0.02249353333673     2.85484574742323
C            3.12728644121466     -0.10029202758529     3.98587984571825
H            2.66020745599286     -0.25667587915397     4.94823467123447
C            4.50013378676749     -0.04781868111593     3.90304420718647
H            5.10313813092174     -0.16747667170871     4.79082384332102
C            5.10089616459584     0.15949335973919     2.67080449107658
H            6.17613607801307     0.21168615141413     2.58479958590189
C            4.31279059300567     0.27876042425762     1.54357750475123
H            4.79212412171380     0.43282686313025     0.58805831472792
C            0.88745352095365     -0.03119382896475     3.11009471870904
H            0.59813773502478     -0.08746435777377     4.16154701607668
C            -2.24622273159046     0.03248122093735     1.73347402507802
C            -4.67521958516359     0.38317739409892     1.43310916396668
H            -4.77883563745283     1.46767772547192     1.31672198030413
H            -5.55894700776174     -0.00753993503263     1.93478941582948
H            -4.58966181325571     -0.06268952190312     0.44412071774690
C            3.26449817891669     0.66615158967437     -1.19440292298357
C            3.65678182346675     -0.05792712171370     -2.31646141220665
H            3.33027056157190     -1.08087270032718     -2.43581568929465
C            4.45366522712697     0.52834879303139     -3.28399292470119
H            4.75673747156476     -0.04498463993836     -4.14818503465544
C            4.84780473185144     1.84951494727476     -3.15449481710063
H            5.46682418117609     2.30555052783773     -3.91295654337196
C            4.43373412661358     2.58835591885131     -2.05707499769871
H            4.72821950418002     3.62320505652445     -1.96199201164657
C            3.63930716284897     2.00398330137572     -1.08874525749751
H            3.30468281149436     2.57513870856986     -0.23266628659429
C            2.38905182014008     -1.82233032059362     -0.05445052811932
C            3.63856306041143     -2.40728239298258     -0.22716302790375
H            4.52071683420268     -1.78884995332309     -0.30181064321081
C            3.75773530983901     -3.78311604524125     -0.32190620945144
H            4.73085104052885     -4.22587693434009     -0.47818007301487
C            2.64004382914786     -4.59572171219709     -0.22449740517249
H            2.73790146443751     -5.66794410831496     -0.30968351624412
C            1.39485810927531     -4.02678747496712     -0.01755449957296
H            0.51719191905073     -4.65182921968774     0.06690129395267
C            1.27697909408933     -2.65263854469598     0.06444507284530
H            0.29187599905241     -2.21906456057759     0.21836948471815
S            -2.04600000000034     0.00000000000086     0.00000000000007

C P N S H 0
6-31G**
******
Ir 0
SDD
******

Ir 0
SDD

