%nprocshared=12
%mem=24GB
# opt int=grid=ultrafine M06 gen pseudo=read

Title

-1 1
Ir            0.00610000000001     -0.03990000000000     -0.35490000000000
C            0.05869999999999     0.31170000000000     -2.53020000000000
C            -0.56840000000000     -0.60590000000000     -3.57980000000000
H            -0.55740000000001     -0.09390000000000     -4.55880000000000
C            0.11170000000000     -1.95670000000000     -3.74730000000001
C            -0.53710000000003     -2.86500000000002     -4.78520000000001
H            0.11470000000000     -2.47690000000000     -2.77490000000000
H            1.17450000000000     -1.80310000000000     -4.00750000000000
H            -0.06040000000000     -3.85750000000000     -4.75080000000000
H            -1.59390000000001     -3.03160000000000     -4.51290000000000
H            -1.63220000000001     -0.79370000000000     -3.36100000000000
H            0.00490000000000     -1.41500000000000     -1.06210000000000
H            1.10520000000000     0.46700000000000     -2.83880000000000
H            -0.41150000000000     1.30760000000000     -2.63100000000000
C            -0.46970000000001     -2.34560000000001     -6.21560000000002
H            -1.02540000000001     -1.40080000000000     -6.29680000000000
H            0.57610000000000     -2.10150000000000     -6.46040000000000
C            -1.01839999999999     -3.34659999999997     -7.21880000000000
H            -0.97750000000001     -2.96710000000000     -8.24570000000000
H            -0.45260000000002     -4.28669999999998     -7.18800000000000
H            -2.06530000000002     -3.59080000000000     -6.99639999999999
C            0.00459999999999     -0.00000000000001     1.55500000000000
C            -1.20161256665095     0.17376995337391     2.23577692444564
C            -1.19889015440116     0.33173493408871     3.62085857611042
H            -2.11962383221110     0.47322765366177     4.16886499765168
C            0.01982549963731     0.30340361271319     4.28998198535956
H            0.02503649194972     0.40107249494285     5.36645994442631
C            1.23576622729212     0.17397411105325     3.62577837478959
H            2.16538344957723     0.18112257872803     4.17733601505404
C            1.22259551859162     0.04493838998243     2.23977089001781
C            2.29771515492461     -0.03600692731032     1.27754022325228
C            4.29316724044585     -0.38856367241145     0.37041194563122
H            4.58867827671956     -1.44260470644991     0.32873106422058
H            5.18869037059448     0.23267651370703     0.36697867852426
C            3.27782831006086     -0.02913875248744     -0.73375939427364
H            3.22558490919566     -0.80268428591955     -1.50514131379884
C            3.54459088488420     1.32839023124110     -1.42042625153795
H            2.65362987579461     1.54549356486558     -2.01647514739249
C            3.72325480049586     2.46576921864941     -0.41730151600536
H            4.64067195601669     2.35695226045435     0.15785261625072
H            2.88423061870938     2.50274951282591     0.27531461291063
H            3.76947336187014     3.41685873326030     -0.94327358681000
C            4.74223826149648     1.22433994031010     -2.36057081149197
H            4.90097098257898     2.17236145277230     -2.86872682937260
H            4.57108429319785     0.45746519225935     -3.11218592681786
H            5.65028028102137     0.97412493591286     -1.81591318825572
C            -2.27852335495864     0.17169560074715     1.27271183898313
C            -4.30496716639197     0.32146058826189     0.37227572731579
H            -4.69410093148970     1.32960084918407     0.19252833256255
H            -5.14304174360666     -0.36672135955886     0.48672898230627
C            -3.28653399527558     -0.11612317010678     -0.70285518409614
H            -3.29424705032936     0.55957059893221     -1.56385681079944
C            -3.48528481824916     -1.55813438874140     -1.21675476121336
H            -2.62035120750728     -1.76651486970668     -1.85159704662453
C            -3.47465568852923     -2.58443808245674     -0.08748767203723
H            -2.53795719083353     -2.52072995579326     0.46194478539814
H            -3.55598168146129     -3.58492623420710     -0.50457560874380
H            -4.30228883994898     -2.43943083390302     0.60365479678049
C            -4.75692763876834     -1.65561950733381     -2.05471684274515
H            -4.84401802067863     -2.65102245700318     -2.48218880589503
H            -4.73648803306097     -0.93412388188861     -2.86828356628523
H            -5.64365964687737     -1.46761258325764     -1.45272868469328
N            2.01990000000065     -0.00000000000056     0.00000000000028
N            -2.01990000000041     -0.00000000000077     0.00000000000016
O            3.59215978887598     -0.17053268338933     1.59248941347273
O            -3.56798239271185     0.33694288615925     1.59143511246180

C O N H 0
6-31G**
******
Ir 0
SDD
******

Ir 0
SDD

