%nprocshared=12
%mem=24GB
# opt=(modredundant) int=grid=ultrafine M06 gen pseudo=read

Title

1 1
Ir    0.291100000000     -0.107600000000      0.294800000000
C    -0.873300000000      1.629400000000      1.260200000000
C    -1.884600000000      2.179200000000      0.260300000000
H    -2.576100000000      1.382500000000     -0.037200000000
C    -2.687000000000      3.344100000000      0.835500000000
C    -3.686200000000      3.954100000000     -0.139700000000
H    -1.991900000000      4.122000000000      1.189400000000
H    -3.226100000000      2.990600000000      1.731700000000
H    -4.210200000000      4.788900000000      0.351600000000
H    -3.147800000000      4.398800000000     -0.993000000000
H    -1.391400000000      2.507000000000     -0.670000000000
H     0.023000000000      0.383900000000      1.764900000000
H    -0.187100000000      2.433600000000      1.562500000000
H    -1.446700000000      1.405800000000      2.178300000000
C    -4.720300000000      2.966800000000     -0.668300000000
H    -4.228400000000      2.227500000000     -1.317500000000
H    -5.139600000000      2.393500000000      0.175900000000
C    -5.835200000000      3.654000000000     -1.438900000000
H    -6.561900000000      2.939100000000     -1.839900000000
H    -6.379500000000      4.360600000000     -0.799600000000
H    -5.430800000000      4.225800000000     -2.284100000000
H    -1.374900000000     -1.742800000000      0.233400000000
H     1.411600000000     -1.684100000000     -0.512200000000
H     2.285400000000      1.049200000000     -0.080800000000

B 1 12 F
B 1 2 F
B 2 12 F

t[corelesslist] 0
6-31G**
******
Ir 0
SDD
******

Ir 0
SDD





