%nprocshared=12
%mem=24GB
# opt int=grid=ultrafine M06 gen pseudo=read

Title

0 1
Ir            -0.01040000000000     -0.11320000000000     -0.40740000000000
C            0.06619999999997     0.48599999999997     -2.55359999999999
C            -0.31959999999997     -0.86340000000001     -2.54700000000000
H            -1.39010000000000     -1.06660000000000     -2.62170000000000
C            0.52179999999998     -1.93680000000003     -3.19219999999998
C            0.14449999999998     -3.37679999999999     -2.86290000000000
H            1.57969999999998     -1.76080000000000     -2.97630000000001
H            0.42400000000001     -1.80530000000000     -4.28520000000000
H            0.98630000000001     -4.04320000000000     -3.10940000000000
H            -0.01140000000000     -3.47390000000000     -1.77579999999999
H            0.05020000000000     -1.77280000000000     -0.14760000000000
H            -0.06350000000000     1.54970000000000     -0.26860000000000
H            1.07650000000000     0.73780000000000     -2.88100000000001
H            -0.65899999999999     1.27469999999998     -2.74000000000001
C            -1.09020000000001     -3.86789999999999     -3.60890000000003
H            -1.92519999999998     -3.16840000000000     -3.45259999999999
H            -0.88500000000000     -3.84910000000001     -4.69020000000001
C            -1.50760000000002     -5.26500000000000     -3.18279999999998
H            -2.38170000000001     -5.62260000000001     -3.73799999999999
H            -0.69380000000002     -5.98409999999997     -3.34260000000000
H            -1.75699999999999     -5.28950000000000     -2.11390000000002
P            2.28530000000005     -0.00000000000007     0.00000000000008
C            -0.00000000000009     0.00000000000001     1.70909999999999
C            2.27651418422780     1.48046311181553     4.30232464772628
H            2.23194593171477     1.90622370972720     5.29496379388326
C            4.26547327278954     -3.48595626332698     0.78465564408703
H            4.43094250885561     -4.13367953428052     1.63337303249403
C            3.50351277880217     1.39997527377848     3.64850767439174
H            4.40424771371174     1.73741308913257     4.13868453740565
C            4.71849804102269     1.16143826824205     -0.89671182589796
H            5.21039647883139     0.24422940176904     -0.60405257998287
C            2.73470495268209     2.48798358326958     -1.13468516570906
H            1.66647414740729     2.59300326302416     -1.01490728830429
C            3.48585837972513     3.52788786426210     -1.64926201565777
H            3.00209420003343     4.44971715266849     -1.93857281033179
C            1.11896125637018     1.04434557362746     3.70051198878948
H            0.17331264360733     1.17205885816658     4.20572985902706
C            4.78397637861181     -3.82353807129167     -0.45468346913899
H            5.35430902460168     -4.73308886821710     -0.57358167667006
C            1.14120064923696     0.49002833504698     2.40147110648682
C            3.84403354561412     -1.83025104726652     -1.39376139195487
H            3.68252315027607     -1.17085849649360     -2.23778902832517
C            3.33279583975494     -1.47911496428178     -0.14648677746855
C            3.53348393241383     -2.32189465518090     0.93942230885321
H            3.11736382444435     -2.05533025692131     1.90100728381668
C            4.56913442085745     -2.99568008835909     -1.54584243104595
H            4.96859559880246     -3.26126116517395     -2.51423664792172
C            4.85608693646166     3.38706322536275     -1.79277138171331
H            5.44590787687689     4.19671383894602     -2.19708854850896
C            3.33939650917080     1.29234002978902     -0.76130557272415
C            5.46796301105625     2.20437936120434     -1.41230777719611
H            6.53784576035833     2.09313156910271     -1.51537792282386
C            3.55079569858774     0.92733389952968     2.34809693315274
H            4.48806281407356     0.90718531908901     1.80863771125429
C            2.38979455149506     0.49303125177454     1.73292266040135
P            -2.28530000000002     0.00000000000000     -0.00000000000011
C            -2.30808989736825     -1.33717577827069     4.35524094836051
H            -2.27070163550653     -1.72429471767179     5.36387395810551
C            -4.23171929786078     3.50657386565297     0.83661953390939
H            -4.54938221272828     4.05597781546495     1.71103207055943
C            -3.52942258953584     -1.27888166295651     3.69028447144612
H            -4.43435502638251     -1.59641216047710     4.18607730344824
C            -4.73528972524274     -0.84794619100156     -1.21692319058474
H            -5.04061931550573     0.18731754042020     -1.27344914008820
C            -3.12961928810223     -2.52953309258937     -0.61228452200002
H            -2.15947783001967     -2.77920979023062     -0.20502520323602
C            -3.99387979902133     -3.51657816160775     -1.04205728122797
H            -3.71271954216412     -4.55615390330611     -0.96349273657543
C            -1.14466960949098     -0.92773165337803     3.74400216052681
H            -0.20253136130711     -1.03919935685514     4.25963546075410
C            -4.48204320712415     4.01259675986292     -0.42774675046725
H            -4.99812038349254     4.95464632509548     -0.54078313429616
C            -1.15654127331050     -0.43148950258914     2.42325029376802
C            -3.40868100302015     2.10581647567786     -1.40407622450796
H            -3.07767464996920     1.55217494037394     -2.27401705557001
C            -3.17566133469421     1.58179170261953     -0.13477200229530
C            -3.57589445844301     2.29718690166382     0.98640509485649
H            -3.37510308642812     1.90275583328143     1.97262684115664
C            -4.06432988448032     3.31322180981655     -1.54958400909467
H            -4.25194193467650     3.71181798470345     -2.53644249200866
C            -5.22765724104080     -3.17302022190608     -1.57302270842044
H            -5.90317570320788     -3.94335894220629     -1.91513118530985
C            -3.49464395073575     -1.18756248018946     -0.69200311412786
C            -5.59335769430632     -1.84110224880205     -1.65991341811936
H            -6.55687172229289     -1.57065646510206     -2.06757471537903
C            -3.56745108240129     -0.85143089342785     2.37345704524020
H            -4.50205884118739     -0.84269926053018     1.82788868502688
C            -2.40023816114135     -0.44812240790593     1.74804887776423

C P H 0
6-31G**
******
Ir 0
SDD
******

Ir 0
SDD


