%nprocshared=12
%mem=24GB
# opt int=grid=ultrafine M06 gen pseudo=read

Title

0 1
Ir            0.00610000000001     -0.03990000000000     -0.35490000000000
C            0.05870000000001     0.31170000000000     -2.53020000000000
C            -0.56839999999995     -0.60589999999999     -3.57980000000000
H            -0.55739999999997     -0.09390000000003     -4.55880000000000
C            0.11170000000005     -1.95670000000001     -3.74729999999999
C            -0.53709999999996     -2.86500000000006     -4.78519999999999
H            0.11469999999998     -2.47690000000000     -2.77490000000000
H            1.17450000000000     -1.80310000000000     -4.00749999999999
H            -0.06040000000001     -3.85750000000003     -4.75080000000000
H            -1.59389999999995     -3.03160000000002     -4.51290000000001
H            -1.63220000000000     -0.79370000000004     -3.36100000000000
H            0.00490000000000     -1.41500000000000     -1.06210000000001
H            1.10519999999999     0.46700000000000     -2.83879999999999
H            -0.41150000000000     1.30759999999999     -2.63099999999998
C            -0.46969999999998     -2.34559999999997     -6.21559999999999
H            -1.02539999999998     -1.40080000000003     -6.29680000000000
H            0.57610000000006     -2.10150000000002     -6.46039999999998
C            -1.01839999999999     -3.34659999999999     -7.21880000000000
H            -0.97749999999993     -2.96710000000000     -8.24570000000003
H            -0.45259999999991     -4.28670000000002     -7.18799999999999
H            -2.06530000000001     -3.59080000000005     -6.99640000000001
P            2.28530000000005     0.00000000000001     -0.00000000000000
C            -0.00000000000006     0.00000000000002     1.70909999999999
C            2.22258075631784     1.64880390425503     4.25385290502246
H            2.16330212519197     2.10140861329849     5.23432890095264
C            4.69600891543312     -3.20134878078771     0.87939028477508
H            5.14758311621940     -3.65741651042703     1.74859641654792
C            3.44711034343856     1.60853914970968     3.59302569595481
H            4.33241397619792     2.00919292800409     4.06372449811837
C            4.65796442074878     1.12923108171082     -1.09714202168594
H            5.16121097316928     0.19708655539779     -0.88088506380185
C            2.66400529238897     2.47187930785010     -1.10510824509077
H            1.60494972332257     2.56790558877877     -0.89110074777841
C            3.36539764434183     3.52381437743307     -1.65982878593201
H            2.86371863800624     4.45479220072173     -1.88093223453539
C            1.08585807515679     1.13208285192791     3.67656229934272
H            0.13816618624603     1.21898074147273     4.18945076404619
C            4.90021456361870     -3.75031621537175     -0.37523732114243
H            5.51418556246455     -4.63231620051476     -0.48414814779499
C            1.12486544445550     0.54048447865838     2.39487221964145
C            3.52823176983100     -2.04486665750834     -1.35075689587845
H            3.05062032827079     -1.58728445222509     -2.20618358762987
C            3.33941138948628     -1.47749345789748     -0.09243755728067
C            3.91359475737624     -2.06842278601201     1.02541201886038
H            3.74888783077049     -1.64178726605699     2.00487018339551
C            4.31119129730626     -3.17391750463565     -1.49091087982645
H            4.46253892549221     -3.60998696582115     -2.46752930723042
C            4.71685560462520     3.38037144072968     -1.93433762554347
H            5.26940539344962     4.20056729690243     -2.36851332700388
C            3.30420305394722     1.26976297456549     -0.81744967670753
C            5.35813504546388     2.18523146230251     -1.65446466766449
H            6.41144918160153     2.07531359468150     -1.86899851716559
C            3.51164673410564     1.08768525029320     2.31023226100500
H            4.44701038154352     1.09249295872039     1.76511498957710
C            2.37257817074307     0.57609166444191     1.71730626929633
P            -2.28529999999980     0.00000000000040     0.00000000000089
C            -2.30840975297635     -1.39765414383995     4.33788218790020
H            -2.27352073001697     -1.78018583542752     5.34873648816793
C            -4.03894750735631     3.59885685012741     0.89360516946944
H            -4.31663799921987     4.16271324596788     1.77248619970679
C            -3.52408659283847     -1.36838941780542     3.66199584505586
H            -4.42652006917340     -1.70670695846123     4.14889302255957
C            -4.79835892832815     -0.75274783018452     -1.09779117698116
H            -5.17288309448452     0.22345052814051     -0.82184553144048
C            -3.01466729496045     -2.36220384787184     -1.18753203687634
H            -1.98410080077518     -2.61275836471143     -0.97263170223950
C            -3.85331010968779     -3.26269646349868     -1.81497306686643
H            -3.48502143201384     -4.23825596669159     -2.09610364129931
C            -1.14868018325653     -0.95818603173790     3.73926981416758
H            -0.21051441394979     -1.03841991282376     4.26983458419497
C            -4.26481662480042     4.12568004514497     -0.36709305361986
H            -4.72030509458662     5.09956383297310     -0.47127911571703
C            -1.15373438038148     -0.46113803487102     2.41985015019479
C            -3.32234112236055     2.15977670372433     -1.36302132790607
H            -3.03051294790738     1.58732117795319     -2.23385824988239
C            -3.11073358657708     1.61811953012558     -0.09590785808302
C            -3.45854744969300     2.34970755920202     1.03293464619977
H            -3.27989234261617     1.93595622426705     2.01624551217265
C            -3.90273245045146     3.40594628882908     -1.49638054625820
H            -4.07290921410625     3.82093481225247     -2.47936745563817
C            -5.16586613382979     -2.90995293791622     -2.08922778837716
H            -5.82208490225755     -3.60932071017027     -2.58640182105298
C            -3.47921702681291     -1.09962331619966     -0.82952711261909
C            -5.63549337762930     -1.65885329482434     -1.72659525616880
H            -6.65930033246432     -1.38447081254144     -1.93678908774283
C            -3.55913699042501     -0.93566102706043     2.34604834473299
H            -4.48772058814101     -0.94372573480002     1.78977975495040
C            -2.39710671914723     -0.50399430763610     1.73509698497079

C P H 0
6-31G**
******
Ir 0
SDD
******

Ir 0
SDD

