%nprocshared=12
%mem=24GB
# opt int=grid=ultrafine M06 gen pseudo=read

Title

0 1
Ir            -0.00000000000006     -0.00010000000001     -0.30910000000000
H            -0.02639999999999     0.73460000000000     -1.74219999999999
H            0.02630000000002     -0.73490000000000     -1.74210000000001
P            2.28529999999998     0.00000000000004     -0.00000000000054
C            0.00000000000060     -0.00000000000028     1.70910000000004
C            2.26491090710469     1.50549837103385     4.31210478027377
H            2.21681877390278     1.91518549120710     5.31180870750314
C            4.37086269291370     -3.41255875593702     0.92152087082757
H            4.72711542881415     -3.92591761175864     1.80312398499929
C            3.48615159073017     1.46641577868404     3.64711956979586
H            4.38185633190545     1.82408578906613     4.13276169704963
C            4.75565405657671     0.96380956686370     -1.02587135230085
H            5.19234370927399     0.00689728020541     -0.77476506964672
C            2.84984184403819     2.42764135909541     -1.13429950374678
H            1.79044394219936     2.58379452623652     -0.96573000588778
C            3.63952248448804     3.42273127945735     -1.67678402660336
H            3.20695724646850     4.37933621259909     -1.93102475725938
C            1.11484747904783     1.04128628035609     3.71462252540245
H            0.16982141496126     1.13139602960021     4.23259234580051
C            4.59501041613311     -3.95341499323071     -0.33318474949443
H            5.12792710053559     -4.88795096062890     -0.43010673705323
C            1.13861730510124     0.50480313824400     2.41022204271514
C            3.44906455605479     -2.10470160811224     -1.34014111777506
H            3.07099320859395     -1.58525095238811     -2.21093930539099
C            3.23841908611795     -1.54791468194089     -0.07998731614352
C            3.69030807267751     -2.21401848333865     1.05204934782593
H            3.51287341462790     -1.79291768260692     2.03221513871393
C            4.13067611428742     -3.29939491305120     -1.46493071270601
H            4.29887825297078     -3.72658482416895     -2.44279522290845
C            4.98827135539871     3.18983631713797     -1.89760981520511
H            5.60797658886642     3.96505005511642     -2.32391391014118
C            3.40334238736641     1.19448358213527     -0.80281792868137
C            5.54172609538892     1.96199340197731     -1.57502829993935
H            6.59270532127882     1.78094800296229     -1.74937681202085
C            3.53723032897503     0.99947602455142     2.34283797109589
H            4.47182151210379     1.00305862901888     1.79673032612663
C            2.38693211166651     0.53767693421447     1.73237579008709
P            -2.28529999999955     -0.00000000000005     -0.00000000000092
C            -2.26490523500012     -1.50561697343071     4.31204857924798
H            -2.21680300332821     -1.91536353825335     5.31172779081702
C            -4.37052550554394     3.41278039060629     0.92146661175787
H            -4.72673847564295     3.92618239146679     1.80306149700781
C            -3.48615195244883     -1.46649800787934     3.64707712551842
H            -4.38185188639950     -1.82419794097872     4.13270594919576
C            -4.75574559756937     -0.96341275164422     -1.02604283302269
H            -5.19230901058558     -0.00644090066994     -0.77494295671638
C            -2.85016561062657     -2.42755775230116     -1.13432244314370
H            -1.79080951114556     -2.58389229177980     -0.96565687076735
C            -3.63995369883507     -3.42249765833538     -1.67692556457341
H            -3.20751917700853     -4.37916464239727     -1.93115737688621
C            -1.11484704527231     -1.04136483588398     3.71458538680116
H            -0.16981759311094     -1.13150234975784     4.23254438043730
C            -4.59464887587164     3.95362162148979     -0.33325070038337
H            -5.12752389997112     4.88817989505323     -0.43018948272946
C            -1.13862263365461     -0.50482084484879     2.41021048376134
C            -3.44884979952029     2.10479894228482     -1.34017230527381
H            -3.07081797039972     1.58530555675244     -2.21096264473935
C            -3.23824231732247     1.54802201081904     -0.08000693830506
C            -3.69006703750267     2.21418714715958     1.05201859594745
H            -3.51264806272536     1.79309585745872     2.03219189466376
C            -4.13037227088732     3.29954086911629     -1.46498539708195
H            -4.29855911370606     3.72671551663691     -2.44285877420189
C            -4.98863881038843     -3.18936685527008     -1.89789610682805
H            -5.60842588813016     -3.96445765250251     -2.32430462775680
C            -3.40349368412628     -1.19431612449065     -0.80285933513584
C            -5.54192427711815     -1.96144449219140     -1.57532386110295
H            -6.59285492810265     -1.78021515420566     -1.74977967721204
C            -3.53724037812013     -0.99949254756569     2.34281917953335
H            -4.47183264748007     -1.00305396410901     1.79671261127931
C            -2.38694468417697     -0.53766923121059     1.73237142493119

C P H 0
6-31G**
******
Ir 0
SDD
******

Ir 0
SDD


