%nprocshared=12
%mem=24GB
# opt int=grid=ultrafine M06 gen pseudo=read

Title

-1 1
Ir            0.00610000000002     -0.03990000000003     -0.35490000000002
C            0.05870000000035     0.31170000000008     -2.53020000000014
C            -0.56840000000097     -0.60589999999997     -3.57979999999939
H            -0.55739999999931     -0.09389999999996     -4.55880000000009
C            0.11169999999841     -1.95670000000048     -3.74730000000049
C            -0.53710000000013     -2.86500000000003     -4.78519999999841
H            0.11470000000006     -2.47689999999991     -2.77489999999991
H            1.17450000000080     -1.80309999999991     -4.00749999999994
H            -0.06040000000014     -3.85749999999965     -4.75080000000008
H            -1.59390000000035     -3.03159999999996     -4.51290000000024
H            -1.63220000000040     -0.79370000000029     -3.36100000000012
H            0.00490000000013     -1.41499999999996     -1.06210000000004
H            1.10520000000021     0.46699999999991     -2.83879999999950
H            -0.41150000000016     1.30760000000002     -2.63100000000019
C            -0.46969999999907     -2.34559999999962     -6.21560000000039
H            -1.02540000000068     -1.40080000000002     -6.29680000000044
H            0.57610000000105     -2.10150000000141     -6.46040000000019
C            -1.01840000000790     -3.34659999999995     -7.21880000000006
H            -0.97749999999897     -2.96710000000026     -8.24570000000040
H            -0.45260000000211     -4.28669999999893     -7.18800000000081
H            -2.06529999999958     -3.59080000000040     -6.99640000000019
P            2.29240000000138     0.00000000000094     -0.00000000000013
P            -2.29240000000182     -0.00000000000479     -0.00000000000050
O            -2.79154626439189     0.38247571221791     1.49255474533305
C            0.13230000000086     -0.00000000000020     1.95369999999939
C            1.31732199935274     -0.54100353438955     2.48877174286300
C            1.50302440786573     -0.71838599127943     3.85195041710321
C            0.52176442902176     -0.33946825189125     4.74759963543532
C            -0.62467249806771     0.25584084473572     4.26103423276985
C            -0.80390898745653     0.42670614114849     2.89267687079519
C            2.46569591660937     -0.90384577965908     1.58812272768585
C            3.55876130852124     -0.98271710128119     -1.07406577661335
C            3.79237693784569     -0.30258992723146     -2.42370658415888
C            2.89715258177398     -2.33813887532278     -1.34627952830265
C            4.91721906860038     -1.27477339205545     -0.42896939334742
C            2.98998987028980     1.73612307605012     0.32545684595579
C            2.42441806510723     2.62093080942208     -0.78780303323633
C            4.51168290204321     1.84727769679435     0.36385341326980
C            2.44760846259212     2.23184713155429     1.66637096350977
C            -2.03702653489671     1.14390437720521     2.42143732528480
C            -3.30455319253856     -1.55077584716453     -0.05408216486787
C            -2.55498914216474     -2.59100040041865     0.77248492528505
C            -3.54552499935045     -2.04500751923872     -1.46987144192220
C            -3.27550794144651     1.27713256357935     -0.96709755476942
C            -2.58145213595690     2.62389253385452     -0.76181432039367
C            -4.73096118275118     1.35934678117637     -0.52522721005961
H            2.42757718331070     -1.15201514736322     4.21462899513877
H            0.66128786017018     -0.48762912928092     5.80903521615718
H            -1.38661598271048     0.59984740117951     4.94841064418888
H            2.41582134460862     -1.96950524361602     1.34321924396297
H            3.42581244092272     -0.70679932316354     2.07468449931645
H            4.45785150662320     -0.91671071761783     -3.03107725189207
H            2.85605406474289     -0.19494388183450     -2.96251311648937
H            4.25199167496954     0.67681628930731     -2.32099411271814
H            2.92036972482822     -2.98098665563592     -0.46982749270682
H            1.86423145816275     -2.20014427481337     -1.64556283906154
H            3.42343549685882     -2.85295737963353     -2.14926344593099
H            4.81364533865640     -1.67051569289087     0.57731167985204
H            5.41790082346817     -2.03629643162603     -1.02841108668174
H            5.56742650862380     -0.40765591398120     -0.40368094336217
H            2.72702437916160     3.65838203168290     -0.64527055367348
H            2.76588083583011     2.29492162026295     -1.76746306981585
H            1.33416260958582     2.57688045838760     -0.78163765059488
H            4.93671583973488     1.16346542991218     1.09493466500036
H            4.95716875838326     1.65621753440532     -0.60820477009682
H            4.78883604661963     2.86068792232496     0.65628613658464
H            2.71017931854080     3.28118434614452     1.80337152239762
H            1.36414813896649     2.14224181968379     1.71376991106531
H            2.86689348034940     1.66845021999033     2.49708600608590
H            -1.75554273703217     2.11563730963796     1.99270420504328
H            -2.71663258138526     1.33150115755194     3.26001499342754
H            -4.25484664086179     -1.31735625583829     0.43979878355740
H            -2.39708926479949     -2.22825238713916     1.78581436250667
H            -3.11407951799077     -3.52389443167060     0.82042178015133
H            -1.57911297835806     -2.78215393324012     0.32656683049554
H            -4.14037936563388     -2.95718524888813     -1.45223567732160
H            -4.07618231074365     -1.30333828036257     -2.06300312047101
H            -2.59358065470096     -2.26107156543797     -1.94778115239288
H            -3.20886707699283     1.00410534993816     -2.02328788833488
H            -1.50329644703005     2.52860969754877     -0.90526868751639
H            -2.95419162387439     3.36860995127722     -1.46441086797926
H            -2.76498198983131     2.99600926858222     0.24559495455469
H            -4.78769205155905     1.46088283505738     0.55729705192737
H            -5.21068761094344     2.22902371158674     -0.97291709648976
H            -5.28880765521036     0.47339632412596     -0.81628694192478

C P O H 0
6-31G**
******
Ir 0
SDD
******

Ir 0
SDD

