%nprocshared=12
%mem=24GB
%chk=TS-BHT-1-2
# opt=(modredundant) int=grid=ultrafine M06 gen pseudo=read

Title

-1 1
Ir            -0.01029999999998     -0.12269999999995     -0.41600000000000
C            0.01179999999959     -0.03450000000010     -2.61919999999994
C            -0.28319999999973     -1.41750000000037     -2.36560000000012
H            -1.34690000000014     -1.66200000000003     -2.41570000000079
C            0.55789999999799     -2.51269999999966     -2.99189999999944
C            0.23590000000004     -3.93199999999960     -2.53910000000036
H            1.62100000000219     -2.28999999999982     -2.85740000000034
H            0.37859999999976     -2.43800000000008     -4.07759999999979
H            1.07690000000044     -4.59959999999989     -2.78100000000019
H            0.14310000000005     -3.95750000000005     -1.43979999999999
H            -0.09140000000000     -1.84429999999999     -0.87199999999999
H            -0.02800000000005     1.48719999999999     -0.22769999999998
H            0.98119999999962     0.19449999999983     -3.06680000000003
H            -0.79030000000053     0.59320000000006     -3.00620000000024
C            -1.03339999999793     -4.49669999999960     -3.16720000000129
H            -1.86109999999884     -3.78100000000029     -3.04679999999998
H            -0.88160000000009     -4.59500000000001     -4.25280000000013
C            -1.43049999999976     -5.83579999999966     -2.57039999999785
H            -2.32119999999919     -6.25389999999999     -3.05160000000000
H            -0.62049999999959     -6.56909999999976     -2.67320000000024
H            -1.64559999999967     -5.73679999999998     -1.49820000000022
P            2.29240000000002     -0.00000000000003     -0.00000000000049
P            -2.29239999999822     -0.00000000000105     0.00000000000033
O            -2.74239735820967     0.37279302924078     1.50356535632632
C            0.13230000000000     -0.00000000000035     1.95369999999932
C            1.31970380568262     -0.52013980919577     2.49687858315487
C            1.50907660987406     -0.66964661154573     3.86345884692448
C            0.53651121930018     -0.26226647568436     4.75488742102352
C            -0.59471692165167     0.34926585425133     4.25523812328859
C            -0.78247085947860     0.48296004447521     2.88331716934910
C            2.46028374639072     -0.89290907160450     1.60083707710071
C            3.65127927524622     -0.99882076598396     -0.96509237063090
C            3.74542007440477     -0.45508082694216     -2.39126045749517
C            3.15358413439276     -2.45433187122404     -0.96691098873865
C            5.07854822446747     -1.06500061160586     -0.40911794491640
C            3.00879141615718     1.73261834602094     0.37168778210129
C            2.67478852511575     2.64771764623564     -0.80641654653336
C            4.51558718913447     1.78694633581940     0.61995983312212
C            2.32033341766286     2.26941461336255     1.62753316175212
C            -2.00469384876462     1.19255135761662     2.39039421250301
C            -3.39222695614738     -1.52170168316039     0.02282952871475
C            -2.63423844846651     -2.65868621826571     0.69835583515191
C            -3.96978286479856     -1.96634546578631     -1.31253820410881
C            -3.38605892130287     1.24566486752044     -0.91690917802205
C            -2.74533684655657     2.62878633030593     -0.84806285458391
C            -4.79201112915705     1.31768005330068     -0.32538407681438
H            2.42942627335516     -1.10914826147248     4.22765846795587
H            0.67258492300556     -0.39933586887459     5.81761954466748
H            -1.34806195701909     0.72617164603771     4.93306924904878
H            2.41585212287860     -1.96188408114733     1.37840518160421
H            3.42055123940867     -0.68510422048844     2.08101154798767
H            4.36393412801223     -1.10730111088596     -3.00964491970380
H            2.76706802957310     -0.37738943787659     -2.85330491290364
H            4.19920317253376     0.53388558493349     -2.39681072763080
H            3.59966699913771     -3.01398897194735     -0.14678915592583
H            2.07424804003054     -2.51147328032241     -0.85644631986179
H            3.44326889752629     -2.95695611679235     -1.88958917346267
H            5.09805323721327     -1.26722981059470     0.65767838523376
H            5.58795855185671     -1.88978808017286     -0.91036118615899
H            5.65414210873712     -0.17074955791595     -0.61402024198023
H            3.01111513290428     3.66188728343298     -0.59492094082929
H            3.15693970248804     2.31204059464420     -1.72099049302699
H            1.60194698813185     2.66469025912501     -0.97387353771363
H            4.84392857683697     1.02096985382497     1.31619510833730
H            5.07443240960901     1.70172238856840     -0.30694322178702
H            4.76148404521183     2.75488198698193     1.05626650455447
H            2.58927297149490     3.31560311936912     1.76936500052360
H            1.24057745429526     2.20026955957197     1.53815368739670
H            2.62702631547651     1.71720919633726     2.51247140546619
H            -1.70917197980921     2.12964181111451     1.90527159014599
H            -2.68749048652296     1.41983790454779     3.21631379063168
H            -4.21214887215795     -1.22253131655878     0.68626611439729
H            -2.17052761793036     -2.30647687456722     1.61874797266483
H            -3.30802409136774     -3.48065675901649     0.93816572008123
H            -1.84999546555337     -3.04016274981110     0.04764442372595
H            -4.71319257907316     -2.74649068749771     -1.14520137417373
H            -4.45187089050433     -1.14701179106138     -1.84160868550203
H            -3.19918196635714     -2.38222993533766     -1.95800308473217
H            -3.43183612434521     0.93391715298152     -1.96525527131448
H            -1.71301798270316     2.59646368471810     -1.18685062423959
H            -3.29657195893488     3.33569991216078     -1.46712338267693
H            -2.75879135966643     2.99862590849303     0.17579957147510
H            -4.73662031401047     1.47930696777952     0.74938735736280
H            -5.33228608042158     2.15606710759061     -0.76379983835250
H            -5.36765936734602     0.41435951411585     -0.50588471585659

B 1 2 F
B 2 3 F
B 3 11 F
B 11 1 F

C P O H 0
6-31G**
******
Ir 0
SDD
******

Ir 0
SDD

--Link1--
%nprocshared=12
%mem=24GB
%oldchk=TS-BHT-1-2
# opt(ts,readfc,nofreeze,noeigentest) guess=read geom=allchk freq int=grid=ultrafine M06 gen pseudo=read

C P O H 0
6-31G**
******
Ir 0
SDD
******

Ir 0
SDD


