%nprocshared=12
%mem=24GB
%chk=TS-CH-Add-1-2
# opt=(modredundant) int=grid=ultrafine M06 gen pseudo=read

Title

-1 1
Ir            -0.00039999999998     0.10810000000000     -0.34669999999999
C            0.06130000000006     0.31669999999995     -2.63970000000004
C            -0.34019999999973     -1.00750000000002     -3.28000000000007
H            -1.35050000000004     -1.28059999999995     -2.95439999999991
C            -0.31099999999956     -0.94090000000005     -4.80529999999993
C            -0.66810000000038     -2.25269999999999     -5.49309999999997
H            0.68699999999993     -0.60960000000004     -5.13360000000005
H            -1.01359999999989     -0.15629999999981     -5.13609999999996
H            -0.61209999999995     -2.11770000000001     -6.58480000000007
H            0.08609999999970     -3.01829999999985     -5.24679999999999
H            0.31270000000012     -1.83000000000012     -2.94359999999998
H            -0.01570000000001     1.30660000000001     -1.36560000000000
H            1.07159999999997     0.59120000000003     -2.97560000000006
H            -0.59139999999998     1.08330000000006     -3.09580000000000
C            -2.04980000000071     -2.78670000000005     -5.13359999999976
H            -2.06280000000007     -3.10020000000008     -4.07929999999994
H            -2.78680000000003     -1.96959999999985     -5.21300000000000
C            -2.46589999999997     -3.95379999999950     -6.01320000000015
H            -3.44769999999975     -4.35190000000005     -5.73439999999989
H            -2.51370000000007     -3.65550000000005     -7.06819999999962
H            -1.74159999999985     -4.77530000000007     -5.94039999999996
P            2.29240000000018     0.00000000000005     -0.00000000000007
P            -2.29239999999999     0.00000000000001     -0.00000000000056
O            -2.81722928704027     0.46196252974152     1.45932439607650
C            0.13230000000008     0.00000000000004     1.95370000000006
C            1.27860043393001     -0.60158081920844     2.48542072197171
C            1.41175297943899     -0.84028524038861     3.84630879808080
C            0.40834258064616     -0.46658845464528     4.72035744639697
C            -0.70264542651549     0.19294757430832     4.22823617528678
C            -0.82834841574179     0.43318337435804     2.86607417084201
C            2.40980428897718     -0.97436737532482     1.57009307775818
C            3.37670868337366     -1.15157680840997     -1.09075416838603
C            3.69746891295803     -0.49345355697904     -2.43190052423193
C            2.46373561523463     -2.36803523366714     -1.32485218331794
C            4.69031356399820     -1.65786521694796     -0.48917969913498
C            3.22416421473348     1.59941440356950     0.39562026216795
C            2.92354653707109     2.58422474533676     -0.73504039272545
C            4.73180273502660     1.45576621572336     0.57903524630590
C            2.60984719705356     2.14963372492555     1.68347911693783
C            -2.01072947540278     1.21263198048610     2.35999184041176
C            -3.03840353739816     -1.70612340363979     0.10915428257620
C            -2.08810566422228     -2.54842151749097     0.95435678853285
C            -3.29233438993949     -2.37456779481986     -1.23313518460848
C            -3.51318601433805     0.97205286793309     -1.04300346931797
C            -3.12369497581920     2.44154418056334     -0.89831313665046
C            -4.96259585758830     0.76574411583210     -0.62107306616121
H            2.30583806983458     -1.32176209496657     4.22430656427868
H            0.50229660097319     -0.66998936754959     5.77774996408739
H            -1.47514681090158     0.52840266989147     4.90778014622485
H            2.31883769893752     -2.03066719803510     1.29680496505802
H            3.37611412115825     -0.83828397212854     2.06468866854599
H            4.21427091838913     -1.20309872353022     -3.07904332150123
H            2.79118966028398     -0.17611391663128     -2.93681823820709
H            4.34610294528285     0.36975779699160     -2.30327071199139
H            2.65706335629854     -3.15738975859968     -0.60068333597436
H            1.41288474806736     -2.07970913859620     -1.23650801463769
H            2.62208007188469     -2.78556904981924     -2.31793358433879
H            4.56171625591983     -2.05300071289049     0.51446436187692
H            5.06314303389042     -2.46855262327751     -1.11710071559599
H            5.45407634745535     -0.88806963820705     -0.46580506864889
H            3.38466651067916     3.54870919847933     -0.52657053688425
H            3.29901924807134     2.22567365158773     -1.68969552370122
H            1.84657731269156     2.72221404320182     -0.81959304473944
H            4.97437268819025     0.66726026716884     1.28771189810499
H            5.22970966955581     1.25191546254397     -0.36542839150448
H            5.13673394472608     2.38928359625606     0.96982586717868
H            2.96597041544750     3.16363322880788     1.86088866459637
H            1.52388803558544     2.17013549515557     1.60141767178779
H            2.87479026919538     1.54143104848250     2.54460555994478
H            -1.65696455863801     2.12881904345862     1.87127335229038
H            -2.67789546160452     1.48555929028584     3.18405065813021
H            -3.98315166218837     -1.58202681607045     0.65123031096910
H            -1.92549620077875     -2.08510058623880     1.92598770660700
H            -2.48736920392259     -3.55039618909314     1.10941542792737
H            -1.12125367461717     -2.63677700211742     0.45629380839953
H            -3.87539815441458     -3.28465385181044     -1.09408323108128
H            -3.83581095116095     -1.72312870327145     -1.91380681291133
H            -2.34912789718739     -2.65188227390722     -1.69750849019372
H            -3.37158034816422     0.66844307785581     -2.08445229823208
H            -2.05738310481059     2.57446285539447     -1.08436358414176
H            -3.68301085929481     3.06499596106361     -1.59413136994209
H            -3.33966731614924     2.78298018210849     0.11264114418984
H            -5.05819206434677     0.91237335211660     0.45300733384971
H            -5.60413335418511     1.48977575086125     -1.12242777956488
H            -5.31942289373577     -0.23078223990334     -0.86795148363242

B 1 12 F
B 1 2 F
B 2 12 F

C P O H 0
6-31G**
******
Ir 0
SDD
******

Ir 0
SDD

--Link1--
%nprocshared=12
%mem=24GB
%oldchk=TS-CH-Add-1-2
# opt(ts,readfc,nofreeze,noeigentest) guess=read geom=allchk freq int=grid=ultrafine M06 gen pseudo=read

C P O H 0
6-31G**
******
Ir 0
SDD
******

Ir 0
SDD


