%nprocshared=12
%mem=24GB
# opt int=grid=ultrafine M06 gen pseudo=read

Title

-1 1
Ir            -0.01040000000000     -0.11320000000000     -0.40740000000000
C            0.06620000000000     0.48600000000000     -2.55360000000000
C            -0.31960000000000     -0.86340000000000     -2.54700000000000
H            -1.39010000000000     -1.06660000000000     -2.62170000000000
C            0.52180000000000     -1.93680000000000     -3.19220000000000
C            0.14450000000001     -3.37680000000000     -2.86290000000000
H            1.57970000000001     -1.76080000000000     -2.97630000000000
H            0.42400000000000     -1.80530000000000     -4.28520000000000
H            0.98630000000001     -4.04320000000000     -3.10939999999999
H            -0.01140000000000     -3.47390000000000     -1.77580000000000
H            0.05020000000000     -1.77280000000000     -0.14760000000000
H            -0.06350000000001     1.54970000000000     -0.26860000000000
H            1.07650000000000     0.73780000000000     -2.88100000000000
H            -0.65900000000000     1.27470000000000     -2.74000000000000
C            -1.09019999999999     -3.86790000000001     -3.60890000000000
H            -1.92520000000000     -3.16840000000000     -3.45260000000000
H            -0.88500000000000     -3.84910000000000     -4.69019999999999
C            -1.50760000000001     -5.26500000000001     -3.18279999999999
H            -2.38170000000000     -5.62260000000000     -3.73800000000000
H            -0.69379999999999     -5.98409999999999     -3.34260000000000
H            -1.75700000000000     -5.28950000000001     -2.11390000000000
P            2.13789999999997     -0.00000000000005     -0.00000000000002
N            -3.37985268858811     0.20064408903630     -0.36083119221343
C            -2.13790000000003     0.00000000000001     -0.00000000000001
C            -3.78842662566571     0.23466080629743     -1.75289545002201
H            -4.73485411478535     -0.30669053117366     -1.85015260332000
H            -3.03617337019090     -0.27620216756547     -2.35109371234936
C            -3.94225599111037     1.66609605264606     -2.25927123511737
H            -4.71341060767358     2.20213766175155     -1.71031427656732
H            -4.21318747881670     1.65623236497427     -3.31163427679718
H            -3.00299441858267     2.20094638682681     -2.14269484471199
C            -4.46868332548455     0.40899210009919     0.58826010281502
H            -4.11851019769170     1.06978380029649     1.38319059985127
H            -5.29132157999349     0.90741708090603     0.07148035696501
C            -4.95405053326582     -0.91858022741879     1.16489642710510
H            -5.38918401551928     -1.53918797902014     0.38445002457939
H            -5.70985423343097     -0.74086740404318     1.92600986805082
H            -4.12672186023687     -1.46357127133547     1.61236514548285
C            2.02620511050382     0.20296023652293     1.83560965122614
C            3.40770015352151     -1.43475683028359     -0.09857427776844
C            3.08607583678116     1.64011575666565     -0.32878814496592
C            2.60850896910190     -2.72517881618858     0.07575054574566
H            1.90332588617251     -2.86453958164668     -0.73631211990006
H            2.05876368378532     -2.69931593266628     1.01570108926701
H            3.28191774463403     -3.58251399677921     0.09229500185198
C            4.42568565016686     -1.38631170911180     1.04487053453040
H            3.95326841248376     -0.99021274850625     1.94237048468052
H            5.29260657620011     -0.78280295037532     0.80232991870191
H            4.77936659766271     -2.39460970234190     1.25670021187730
C            4.11570315618951     -1.47964056220084     -1.45096368709763
H            4.71934852298760     -2.38588772776055     -1.51642957408440
H            4.77494448820336     -0.62776245603496     -1.59706331320962
H            3.39532330723496     -1.49684921476667     -2.26760777724578
C            4.51142348380243     1.61799326079587     0.21757879666912
H            5.16579470227857     0.98053424473484     -0.36838714600116
H            4.51099665593143     1.30030299407125     1.25470968996870
H            4.91845301369075     2.62929236989286     0.17066272852967
C            2.35981118757786     2.75346251437369     0.42533115472983
H            2.87263901663076     3.70260473169825     0.27173226731761
H            2.34401323835589     2.52721922417185     1.49092166656830
H            1.33599739396208     2.86701240284157     0.08162286304508
C            3.12254281466339     1.98277714976224     -1.81864436631373
H            2.15140894022335     2.33907407276278     -2.15216632164906
H            3.41565301444510     1.12566938198610     -2.42289111747059
H            3.84411246879666     2.78149355278445     -1.99565761533832
C            -0.31390000000061     0.00000000000048     1.21010000000004
C            -1.72477423633234     0.05093171902728     1.42956063432044
C            -2.16256418873683     0.17916904076221     2.73143361164996
H            -3.20152379009992     0.18042004380573     3.03386701648711
C            -1.20016423319455     0.30284960351486     3.76385754533697
H            -1.57200456147900     0.41395166018263     4.77358187076605
C            0.15699979546710     0.30492724737220     3.55269991482507
H            0.83593224752283     0.42511011923619     4.38589329422015
C            0.67633572904555     0.14920703664922     2.24065799623129

P C H N 0
6-31G**
******
Ir 0
SDD
******

Ir 0
SDD


