%nprocshared=12
%mem=24GB
# opt int=grid=ultrafine M06 gen pseudo=read

Title

-1 1
Ir            0.00000000000001     -0.00000000000002     -0.31210000000000
P            2.13790000000020     -0.00000000000019     -0.00000000000007
N            -3.38189494465269     0.07439243595021     -0.41158655387168
C            -2.13789999999996     -0.00000000000016     0.00000000000003
C            -3.66457284712652     0.10145552454905     -1.83329784054276
H            -4.56280895841725     -0.49132223913269     -2.03011980699882
H            -2.82224024049351     -0.35909879476446     -2.35498992388164
C            -3.85464562364566     1.53002814752671     -2.33938228255698
H            -4.69185174113737     2.01348198822189     -1.84097651152125
H            -4.04649055233565     1.52507614825925     -3.40892407998718
H            -2.95723069296499     2.11233168775475     -2.14450301219108
C            -4.53606694959544     0.14112833481519     0.47071024619145
H            -4.27249673563854     0.75298324745365     1.33547382837770
H            -5.35707616069924     0.63059575337510     -0.05895881780111
C            -4.96732471784502     -1.25191226297401     0.92363646200424
H            -5.28073216557746     -1.85286669296351     0.07258248868547
H            -5.79872409417663     -1.17821770567790     1.61993996675986
H            -4.14007494284434     -1.75710601661616     1.41576035591670
C            2.04569388058707     -0.04406131668265     1.86531170172508
C            3.10126287525884     -1.58587156915889     -0.31898115979725
C            3.16324795413847     1.55862750473588     -0.27527177216336
C            2.29011878450634     -2.63969323746876     0.43723815979284
H            1.24013618904545     -2.60687335968975     0.13033342008224
H            2.33237456846744     -2.43402461285759     1.50618163170846
H            2.67723976202653     -3.64081836592087     0.25076400921674
C            4.52575907579196     -1.56540273679714     0.21536915658918
H            4.52568363455895     -1.19138561265994     1.23633753368234
H            5.16939283537703     -0.93835743277575     -0.39762003654261
H            4.93997205626633     -2.57402543757271     0.21262318558288
C            3.06763116292325     -1.90440674401758     -1.81271520205716
H            3.45845597849311     -2.90500973367442     -1.99946503623149
H            3.66216034433266     -1.19615504356766     -2.38626069060908
H            2.04009374722323     -1.86831974301558     -2.18223590874062
C            4.28869912033895     1.72453895661507     0.73886126744137
H            5.15183965846748     1.11793755364146     0.48291566196139
H            3.93015716242213     1.42833084011242     1.72373987657915
H            4.60702934782910     2.76615145251700     0.77607710520742
C            2.13305279032030     2.67120138394908     -0.05818034165958
H            2.56761879144109     3.65077350050513     -0.25519132633996
H            1.77407829733928     2.64802154547325     0.97016795051953
H            1.27236448713215     2.53645905383811     -0.72042502787045
C            3.68583439349236     1.62835686693010     -1.70773757030306
H            2.88016786816550     1.44677115116271     -2.42066631439660
H            4.46946368104041     0.89254526277855     -1.87737282800658
H            4.10263869460546     2.61526370928762     -1.91141380964483
C            -0.31389999999906     0.00000000000128     1.21010000000054
C            -1.74572243614268     -0.01309537092615     1.43218825884006
C            -2.18385139202404     -0.06147552269560     2.73909003729528
H            -3.22410193089922     -0.11712384865769     3.03615753406489
C            -1.21397844855884     -0.06193612724378     3.77282248052546
H            -1.58535028509133     -0.09150270242077     4.78908443972550
C            0.14878056814508     -0.03778739608928     3.57784044400482
H            0.80975814294300     -0.04471032198649     4.43444501427627
C            0.69082887497053     -0.01374191335210     2.26676298324116

P C H N 0
6-31G**
******
Ir 0
SDD
******

Ir 0
SDD


