%nprocshared=12
%mem=24GB
%chk=TS-1olefin-disso
# opt=(modredundant) int=grid=ultrafine M06 gen pseudo=read

Title

-1 1
Ir            -0.00410000000000     -0.00800000000000     -0.29060000000000
C            -0.06269999999996     0.40950000000000     -3.03610000000000
C            -0.55670000000001     -0.68530000000004     -3.62760000000001
H            -1.48990000000001     -0.59790000000000     -4.19480000000000
H            0.90840000000001     0.39160000000000     -2.53219999999999
C            0.10320000000002     -2.02019999999999     -3.67119999999999
H            0.90410000000001     -2.05870000000001     -2.92280000000000
H            -0.61710000000000     -2.80580000000000     -3.39269999999998
C            0.68210000000004     -2.33360000000002     -5.04959999999999
H            1.38719999999999     -1.53490000000003     -5.33200000000000
H            -0.11499999999998     -2.31610000000002     -5.81039999999999
C            1.39620000000005     -3.67630000000000     -5.07900000000001
H            0.68959999999999     -4.46879999999999     -4.78920000000000
H            2.18000000000000     -3.67720000000002     -4.30460000000000
H            -0.06590000000000     1.67850000000000     -0.25540000000000
H            0.04210000000000     -1.69950000000000     -0.34360000000000
C            2.00210000000001     -3.98779999999998     -6.43649999999998
H            2.51549999999999     -4.95510000000002     -6.44430000000001
H            1.22989999999999     -4.01480000000000     -7.21559999999999
H            2.73149999999996     -3.22129999999997     -6.72700000000003
H            -0.55460000000001     1.37559999999998     -3.11280000000000
P            2.13790000000020     -0.00000000000014     0.00000000000002
N            -3.36319447598758     0.10535374713519     -0.43577548280041
C            -2.13789999999994     0.00000000000011     -0.00000000000002
C            -3.63331141319533     0.01678491491951     -1.85937011258827
H            -4.56596200033613     -0.53577616798429     -2.00569786215912
H            -2.81389252845849     -0.54138128585258     -2.31467532826939
C            -3.72864010195882     1.39785186651468     -2.50075364697450
H            -4.57037513757191     1.96202536104571     -2.10540952818952
H            -3.85415206491454     1.29995759389593     -3.57568714926003
H            -2.81672547973573     1.95455114162414     -2.30188475451056
C            -4.52349395523768     0.30568854417119     0.42113183651924
H            -4.23555880566939     0.96274490128615     1.24370031568694
H            -5.30007113308949     0.80587419663037     -0.16260028180930
C            -5.04967623584887     -1.02071178955941     0.96108241628298
H            -5.37860865038272     -1.66365780015974     0.14757415155218
H            -5.89217365156974     -0.84443458012777     1.62477033171441
H            -4.26843444280528     -1.53718400179823     1.51278092910440
C            2.02678171809808     0.07908054025373     1.85797025697038
C            3.29913403140685     -1.51003553604573     -0.16111497593940
C            3.12587334975187     1.61374516705736     -0.29715344893741
C            2.47832258479566     -2.74815316546976     0.19919963300694
H            1.69126097817532     -2.93750985296519     -0.52447659730136
H            2.02164127681072     -2.61837247395806     1.18000170430680
H            3.12291762383304     -3.62650378604598     0.22962131517880
C            4.45695967485649     -1.44442855064419     0.83840182358609
H            4.12291558017608     -0.95354507071638     1.75102072896923
H            5.31892541930617     -0.92376056881216     0.43764907270292
H            4.77689964845164     -2.45389647164397     1.09338522036938
C            3.80289178983417     -1.64251006322254     -1.59616791694888
H            4.38048981874343     -2.56115117333178     -1.70436294497325
H            4.44125481445341     -0.80730566726045     -1.87784718570012
H            2.96627797879243     -1.68294709526825     -2.29388943364618
C            4.62143879829382     1.52810950950981     -0.01062126459868
H            5.13539619534899     0.86959431726229     -0.70512205013706
H            4.79786691959762     1.20245464592138     1.00880260875396
H            5.05267505873633     2.52386741018789     -0.12556964190559
C            2.55059205309159     2.66119636221169     0.65474185842262
H            3.03998321044400     3.62177126404106     0.49745810612453
H            2.70730673557172     2.34751459893715     1.68555427759925
H            1.48466973139080     2.79487174911086     0.49706073548679
C            2.92246521384522     2.06276382394989     -1.74475442620380
H            1.88185867283217     2.32595216098652     -1.92018762724239
H            3.21831807951966     1.28280732626689     -2.44737258976445
H            3.52735602978164     2.94687053402739     -1.94998048911098
C            -0.31389999999880     -0.00000000000013     1.21009999999849
C            -1.74789200548272     0.04252080180359     1.43603516226828
C            -2.19042651085062     0.13889168020818     2.73187496395921
H            -3.23401020826614     0.16953468523435     3.02080507635157
C            -1.22230645148083     0.19925366977774     3.77199231611440
H            -1.59737882006509     0.28505749593897     4.78287866595176
C            0.13693154972347     0.16774566379269     3.57444201739567
H            0.80340347969048     0.23329005911291     4.42396317343439
C            0.68189277077779     0.06503896292925     2.26468521741453

B 1 2 F
B 1 3 F
B 2 3 F

P C H N 0
6-31G**
******
Ir 0
SDD
******

Ir 0
SDD

--Link1--
%nprocshared=12
%mem=24GB
%oldchk=TS-1olefin-disso
# opt(ts,readfc,nofreeze,noeigentest) guess=read geom=allchk freq int=grid=ultrafine M06 gen pseudo=read

P C H N 0
6-31G**
******
Ir 0
SDD
******

Ir 0
SDD


