%nprocshared=12
%mem=24GB
%chk=TS-BHT-1-2
# opt=(modredundant) int=grid=ultrafine M06 gen pseudo=read

Title

0 1
Ir    0.077300000000     -0.056500000000      0.351200000000
C    -0.099900000000      1.396800000000      2.000100000000
C    -0.619500000000      2.131300000000      0.880100000000
H    -1.709800000000      2.123200000000      0.809700000000
C    -0.060800000000      3.496000000000      0.526800000000
C    -0.594100000000      4.113900000000     -0.760300000000
H     1.033100000000      3.461500000000      0.521300000000
H    -0.328300000000      4.152100000000      1.372100000000
H     0.081200000000      4.915800000000     -1.095800000000
H    -0.582200000000      3.359400000000     -1.565500000000
H    -0.365100000000      1.444400000000     -0.503100000000
H     0.376200000000     -1.315600000000      1.327400000000
H     0.846700000000      1.738200000000      2.424200000000
H    -0.805900000000      1.061900000000      2.759400000000
C    -2.001100000000      4.684700000000     -0.622600000000
H    -2.666300000000      3.935200000000     -0.167100000000
H    -1.976800000000      5.528300000000      0.083800000000
C    -2.578900000000      5.132700000000     -1.954000000000
H    -3.574200000000      5.576300000000     -1.843200000000
H    -1.932500000000      5.879000000000     -2.433300000000
H    -2.666200000000      4.285100000000     -2.646500000000
H    -2.125800000000     -0.893100000000      0.271500000000
H     0.318300000000     -1.597900000000     -1.098400000000
H     2.427100000000      0.042000000000     -0.001100000000

B 1 2 F
B 2 3 F
B 3 11 F
B 11 1 F

t[corelesslist] 0
6-31G**
******
Ir 0
SDD
******

Ir 0
SDD

--Link1--
%nprocshared=12
%mem=24GB
%oldchk=TS-BHT-1-2
# opt(ts,readfc,nofreeze,noeigentest) guess=read geom=allchk freq int=grid=ultrafine M06 gen pseudo=read

t[corelesslist] 0
6-31G**
******
Ir 0
SDD
******

Ir 0
SDD





