%nprocshared=12
%mem=24GB
# opt int=grid=ultrafine M06 gen pseudo=read

Title

-1 1
Ir            -0.01040000000000     -0.11320000000000     -0.40740000000000
C            0.06620000000001     0.48600000000000     -2.55360000000000
C            -0.31960000000000     -0.86340000000000     -2.54700000000000
H            -1.39010000000000     -1.06660000000000     -2.62170000000000
C            0.52180000000000     -1.93679999999999     -3.19220000000000
C            0.14450000000000     -3.37680000000000     -2.86290000000000
H            1.57970000000000     -1.76080000000000     -2.97630000000000
H            0.42400000000000     -1.80530000000000     -4.28520000000000
H            0.98630000000001     -4.04320000000000     -3.10940000000000
H            -0.01139999999999     -3.47390000000000     -1.77580000000000
H            0.05020000000001     -1.77279999999999     -0.14760000000000
H            -0.06350000000000     1.54970000000000     -0.26860000000000
H            1.07650000000000     0.73780000000001     -2.88100000000000
H            -0.65900000000001     1.27470000000000     -2.74000000000000
C            -1.09019999999999     -3.86790000000000     -3.60890000000000
H            -1.92519999999999     -3.16840000000000     -3.45260000000000
H            -0.88499999999999     -3.84910000000000     -4.69019999999999
C            -1.50760000000000     -5.26500000000000     -3.18280000000000
H            -2.38169999999999     -5.62260000000001     -3.73800000000000
H            -0.69380000000000     -5.98410000000001     -3.34260000000000
H            -1.75699999999998     -5.28950000000000     -2.11390000000000
P            2.01529999999998     -0.00000000000018     0.00000000000002
O            2.25664387781651     -0.21804638381866     1.62325083658156
N            -2.01529999999999     -0.00000000000000     -0.00000000000000
C            -0.05740000000001     0.00000000000001     1.57850000000000
C            1.09572980120890     -0.10108180595939     2.34570904405968
C            1.02973802251732     -0.09968925965340     3.72397224104690
H            1.92784666383547     -0.18826533227396     4.31606216513183
C            -0.22086977820747     0.00646593938264     4.34148574056107
H            -0.26792535590930     0.00660489355258     5.42023788373461
C            -1.38217821604741     0.09694078560662     3.60710293170479
H            -2.34293945046504     0.16355038131637     4.09648779151031
C            -1.30457325044594     0.08083099303075     2.20781682343844
C            3.32971580515312     -1.23447176306838     -0.55383222172668
H            3.37498970973648     -1.16599827583798     -1.64734254973490
C            2.87287291132032     -2.63618341687104     -0.16693008170962
H            3.56093088935823     -3.38388334026317     -0.55898539284547
H            1.88140011668183     -2.84110963703557     -0.55617289580774
H            2.84061615513130     -2.72743036300371     0.91696875859431
C            4.71826876955082     -0.98133453674116     0.02790331791114
H            5.34693125976124     -1.85237758939696     -0.15483838733385
H            4.65320109598165     -0.83313219797597     1.10333662384525
H            5.20543096472963     -0.12245149324516     -0.42595253681518
C            2.99921635207473     1.60222677653055     -0.09780393003315
H            3.93553841477646     1.36852583989880     0.41883582176114
C            2.32452016662706     2.72263183459570     0.68135245289797
H            2.98124224819795     3.59036145818121     0.72947513813573
H            2.09842841140492     2.40561770672203     1.69824838721677
H            1.39489620157243     3.02134704009451     0.20390752344563
C            3.28901696948460     2.02955314697278     -1.52771260731490
H            4.00710919953280     2.84908289650010     -1.53729955285712
H            2.37572426448460     2.37460387486694     -2.00597421109475
H            3.70027210971953     1.20659704763269     -2.10993424492622
C            -2.35865768471427     0.11916568705640     1.24820158878697
H            -3.40001758861264     0.26084008247062     1.53003337953314
C            -3.04854597555855     0.05975801139843     -0.97342739396175
C            -3.84179512379364     -1.07500492560763     -1.20271320418746
C            -4.67482555481525     -1.09196080361297     -2.31375026478773
H            -5.25389547266694     -1.97663067677704     -2.53096935306133
C            -4.78659915980301     0.01012079532195     -3.13734844929977
H            -5.42268192450754     -0.02395503488524     -4.00944634833076
C            -4.13224620892971     1.18017432169697     -2.80119220976685
H            -4.30069581103674     2.06622734130462     -3.39215068354324
C            -3.27046587395955     1.23456597419804     -1.71572840937796
C            -3.87012002483469     -2.23517208869978     -0.23353359093433
H            -3.23754052752910     -2.00304361766405     0.62804606589621
C            -3.32320060519691     -3.51197756205859     -0.86172005455657
H            -2.27157280826214     -3.36973734507353     -1.08808021475441
H            -3.85482420570555     -3.76125577546001     -1.77693267570848
H            -3.42138544837841     -4.34359886978774     -0.16672780625029
C            -5.30001631435856     -2.44077516128480     0.27624660639514
H            -5.70573827452044     -1.51003252378179     0.66818745150213
H            -5.30914440661121     -3.18358748065380     1.07062656290596
H            -5.95326841944732     -2.78722561810906     -0.52049524038761
C            -2.70835870007353     2.56156096500433     -1.25800105364617
H            -1.77700550323643     2.38206363528047     -0.71730039250065
C            -2.41610337354554     3.54686584783795     -2.39022925643819
H            -1.85704289363463     3.07325926453024     -3.19448177292223
H            -1.82292091323380     4.37436298000631     -2.00568608513883
H            -3.33343542872571     3.96052019525335     -2.80352839450429
C            -3.70508057601852     3.18852805347239     -0.27516317478462
H            -3.85752968504394     2.54336581526316     0.58708659023326
H            -4.66682467786804     3.34827489314178     -0.76001343119404
H            -3.32980899660820     4.14697800199136     0.07725091099336

C P O N H 0
6-31G**
******
Ir 0
SDD
******

Ir 0
SDD


