%nprocshared=12
%mem=24GB
# opt int=grid=ultrafine M06 gen pseudo=read

Title

-1 1
Ir            0.00610000000000     -0.03990000000000     -0.35490000000000
C            0.05870000000000     0.31170000000000     -2.53020000000000
C            -0.56840000000000     -0.60590000000000     -3.57980000000000
H            -0.55740000000000     -0.09390000000000     -4.55880000000000
C            0.11170000000000     -1.95670000000000     -3.74730000000000
C            -0.53710000000000     -2.86500000000000     -4.78520000000000
H            0.11470000000000     -2.47690000000000     -2.77490000000000
H            1.17450000000000     -1.80310000000000     -4.00750000000000
H            -0.06040000000000     -3.85750000000000     -4.75080000000000
H            -1.59390000000000     -3.03160000000000     -4.51290000000000
H            -1.63220000000000     -0.79370000000000     -3.36100000000000
H            0.00490000000000     -1.41500000000000     -1.06210000000000
H            1.10520000000000     0.46700000000000     -2.83880000000000
H            -0.41150000000000     1.30760000000000     -2.63100000000000
C            -0.46970000000000     -2.34560000000000     -6.21560000000000
H            -1.02540000000000     -1.40080000000000     -6.29680000000000
H            0.57610000000000     -2.10150000000000     -6.46040000000000
C            -1.01840000000000     -3.34660000000000     -7.21880000000000
H            -0.97750000000000     -2.96710000000000     -8.24570000000000
H            -0.45260000000000     -4.28669999999999     -7.18800000000000
H            -2.06530000000000     -3.59080000000000     -6.99640000000000
P            2.01530000000001     -0.00000000000007     -0.00000000000001
O            2.27595142699114     -0.02930623310552     1.64758641135222
N            -2.01530000000001     -0.00000000000001     0.00000000000001
C            -0.05740000000000     0.00000000000000     1.57850000000000
C            1.09453573259959     0.03768181845146     2.35625104496809
C            1.02842640188372     0.16195134832621     3.73121278651948
H            1.92814497957803     0.19330247554915     4.32789994191052
C            -0.22641698218937     0.25337033581736     4.33802848094454
H            -0.27746864036816     0.34959989372019     5.41277375715160
C            -1.39223969826609     0.23258452256792     3.59835078824851
H            -2.35450685878016     0.31752895393474     4.08409834467964
C            -1.30384566169511     0.10539487373402     2.20908515471496
C            3.24942169261448     -1.32342125928259     -0.45180309479328
H            3.29238576262472     -1.35060593897744     -1.54478541473207
C            2.68809654160379     -2.64901318567342     0.05486927627316
H            3.32563268853386     -3.47764066630556     -0.24782488535249
H            1.68598187122720     -2.81013649926084     -0.33836480414367
H            2.63164845047878     -2.63627629749656     1.14144471704139
C            4.63534132323188     -1.07480049619509     0.13293337318671
H            5.26430232595982     -1.94977921403201     -0.02591266559935
H            4.55959026334698     -0.90064210271442     1.20382121373946
H            5.12470581889314     -0.22044270096180     -0.32700759800046
C            2.93755609260654     1.60362852785748     -0.29964327257156
H            3.78600730704080     1.60234475292958     0.39480605125152
C            1.97967230254113     2.72688574804441     0.08882246378727
H            2.45675252327625     3.70140202367585     -0.01471180413187
H            1.65578776107960     2.61761113375514     1.12432296145975
H            1.10172135509958     2.70851959770189     -0.55995979076606
C            3.43554151440031     1.78324987528102     -1.72513562211295
H            4.04331777926295     2.68521217591227     -1.79582077673018
H            2.59895212895238     1.88424244735413     -2.41137345772111
H            4.03910198875614     0.93764831264675     -2.04517762774970
C            -2.36232494575506     0.10791593391812     1.24161960722823
H            -3.40899117848031     0.21338424347428     1.52567179365985
C            -3.01060978440123     0.07384874997195     -1.00089317777205
C            -3.69731976091988     -1.07979406997631     -1.39209033360213
C            -4.64199668837065     -0.97514568622398     -2.40294084894480
H            -5.18896047133765     -1.85120900263591     -2.71572554468781
C            -4.89845041383299     0.23723053441933     -3.01346847162680
H            -5.63600686365363     0.30124861611058     -3.79988040009900
C            -4.21619335270742     1.37174437565582     -2.61519806999479
H            -4.43291839996049     2.31350333124345     -3.09418434318975
C            -3.26549280176809     1.31054736070879     -1.60835946601815
C            -3.43722498425530     -2.40049289108873     -0.70539408374099
H            -2.54055054244827     -2.29790816379602     -0.08509265906012
C            -3.16875295178643     -3.52137108050969     -1.70852614512902
H            -2.34241205988608     -3.24564878711840     -2.35698948912674
H            -4.04332626215498     -3.72810891309398     -2.32004262736396
H            -2.90214430999625     -4.43322245163594     -1.17905053744123
C            -4.62170952750626     -2.75496993860932     0.19827343028466
H            -4.78697067704451     -1.97721835557531     0.94114662173210
H            -4.43217548207258     -3.69134187699657     0.71805560791880
H            -5.53133607641481     -2.86289853258557     -0.38872753453576
C            -2.54278957715170     2.55092056613666     -1.12924083652600
H            -1.58503376141643     2.23682866115191     -0.68972743967358
C            -2.23593735974494     3.54021433205091     -2.25328492749314
H            -1.78365294343325     3.03269468498195     -3.10256020078439
H            -1.54481174837936     4.30264063075155     -1.89725777315769
H            -3.13836952363493     4.04300263906597     -2.59204743531582
C            -3.36167313088345     3.24068288730380     -0.03421846195126
H            -3.49168174645547     2.58746289935534     0.82631017723126
H            -4.34655964046516     3.50672784913444     -0.41352362625052
H            -2.86115909040128     4.14882944937397     0.29743985874219

C P O N H 0
6-31G**
******
Ir 0
SDD
******

Ir 0
SDD

