%nprocshared=12
%mem=24GB
# opt int=grid=ultrafine M06 gen pseudo=read

Title

-1 1
Ir            0.00609999999993     -0.03989999999998     -0.35490000000000
C            0.05870000000002     0.31169999999996     -2.53019999999996
C            -0.56840000000033     -0.60590000000019     -3.57980000000001
H            -0.55740000000004     -0.09390000000001     -4.55880000000006
C            0.11170000000021     -1.95669999999995     -3.74730000000005
C            -0.53710000000052     -2.86499999999974     -4.78519999999975
H            0.11469999999994     -2.47689999999990     -2.77489999999977
H            1.17450000000003     -1.80309999999996     -4.00750000000001
H            -0.06039999999991     -3.85750000000021     -4.75080000000000
H            -1.59389999999974     -3.03160000000000     -4.51290000000006
H            -1.63220000000027     -0.79369999999997     -3.36100000000013
H            0.00490000000000     -1.41500000000000     -1.06209999999999
H            1.10520000000007     0.46700000000002     -2.83879999999998
H            -0.41150000000004     1.30759999999982     -2.63100000000000
C            -0.46970000000127     -2.34559999999995     -6.21559999999986
H            -1.02540000000041     -1.40079999999990     -6.29679999999996
H            0.57610000000014     -2.10149999999991     -6.46040000000000
C            -1.01839999999934     -3.34659999999920     -7.21879999999958
H            -0.97749999999991     -2.96709999999972     -8.24570000000049
H            -0.45259999999949     -4.28670000000021     -7.18799999999999
H            -2.06530000000008     -3.59080000000027     -6.99640000000002
P            2.20720000000000     -0.00000000000001     -0.00000000000009
C            -2.46039811016987     0.37177390386452     1.43432164562833
H            -3.30906777049247     -0.20531377956817     1.82222441671628
H            -2.76536699787331     1.42026568266268     1.48662031948113
C            -0.03209999999993     0.00000000000008     1.70950000000011
C            1.11612608403472     -0.11654347421291     2.50031106636273
C            1.03935656889802     0.00661132667825     3.87718348887812
H            1.93130222936622     -0.07432687954652     4.48711971562031
C            -1.25540363284567     0.21104740098052     2.32716238387236
C            -1.33887748520450     0.32603837986614     3.70980973061135
H            -2.29461541525335     0.49667439639985     4.19037778140890
C            -0.19098170977775     0.22927459088388     4.47774875707741
H            -0.25151804274538     0.32381371360914     5.55320975731480
C            2.41292768735749     -0.42471780387913     1.79805346938145
H            2.58703729071861     -1.50342285455659     1.85808194615136
H            3.27031455489546     0.07706019806281     2.25395242841200
N            -2.20720000000003     0.00000000000026     -0.00000000000014
C            4.42817109544640     1.88626413894871     0.12046915383734
H            4.77078257041116     1.33740101739413     0.99387129261130
H            4.69219293076281     2.93520830219321     0.25982273556124
H            4.96065618532255     1.53037730902990     -0.75745095619503
C            2.91807040703088     1.77100510378424     -0.06763232102978
C            2.21523267320869     2.54966827335285     1.04717647269392
H            1.13857333452719     2.38745941654900     1.01152166313415
H            2.40255295846437     3.61731466296812     0.92986970358667
H            2.56702338410375     2.25328979532536     2.03193744414562
C            2.53305977374935     2.41301606159706     -1.40028627365740
H            2.95249780420028     1.87211827582737     -2.24307358972586
H            2.89930866041764     3.43931293316106     -1.43908243457644
H            1.45301212569609     2.43118610425964     -1.51416227922478
C            3.44987399505619     -1.20676891528703     -0.82363750221041
C            4.80153087540279     -1.35257260836981     -0.12137724774241
H            5.44084415153550     -0.49054803746776     -0.27405939530864
H            5.31681810156717     -2.21596956301425     -0.54335129550101
H            4.69074438509017     -1.52469708394775     0.94513036376973
C            -2.84456863288260     1.01210114572231     -0.85437510621803
H            -3.91873675985120     1.08777943217164     -0.61852693569479
H            -2.75057608368782     0.67863545709785     -1.89023219259610
C            -2.84381663591963     -1.30629757751214     -0.24348391312319
H            -2.69136555578283     -1.56672479613169     -1.29317494119882
H            -3.92890808571028     -1.22266965739889     -0.06548166398053
C            -2.28593273679711     -2.43405545869649     0.62522884821619
H            -2.39891256250776     -2.19728474176530     1.68301608071576
H            -1.21694417820419     -2.53206619551260     0.42739568110185
C            3.68232596586611     -0.82776922752261     -2.28456607289312
H            2.72997518235068     -0.70023337308796     -2.78879378400430
H            4.23118273725595     -1.62319860822495     -2.78839456029873
H            4.26262849947849     0.08636266311267     -2.37990576077863
C            2.75564926278495     -2.57083872220178     -0.79613873999968
H            2.55968349619392     -2.90041076104451     0.22093757713307
H            3.38213084804624     -3.31766764694006     -1.28194419950681
H            1.80956329020665     -2.51516036335648     -1.32355418692911
C            -2.19861440849197     2.39489098681347     -0.73169747801580
H            -2.44689772396465     2.86789588858601     0.22145259397295
H            -1.11048812243043     2.27993520816549     -0.76437100910052
C            -2.65360294105103     3.31734821522563     -1.85398212867562
H            -2.19699846554206     4.29891022539946     -1.74717160437907
H            -3.73512002240357     3.43898309678835     -1.82850774172677
H            -2.37709674357770     2.91115120869193     -2.82433072405245
C            -2.99385329748193     -3.75066484986255     0.33271838639924
H            -2.57133099289171     -4.54485813883951     0.94264785072225
H            -2.88059240264266     -4.02370379903580     -0.71338711838234
H            -4.05673511097652     -3.67808192480457     0.55677939033380

C P N H 0
6-31G**
******
Ir 0
SDD
******

Ir 0
SDD

