%nprocshared=12
%mem=24GB
%chk=TS-1olefin-disso
# opt=(modredundant) int=grid=ultrafine M06 gen pseudo=read

Title

-1 1
Ir            -0.00410000000000     -0.00800000000000     -0.29059999999999
C            -0.06270000000001     0.40950000000001     -3.03610000000000
C            -0.55669999999996     -0.68530000000005     -3.62760000000002
H            -1.48990000000000     -0.59790000000000     -4.19480000000000
H            0.90840000000000     0.39159999999999     -2.53220000000000
C            0.10320000000001     -2.02020000000001     -3.67120000000000
H            0.90410000000001     -2.05870000000001     -2.92280000000000
H            -0.61709999999998     -2.80580000000001     -3.39270000000000
C            0.68210000000002     -2.33360000000003     -5.04960000000001
H            1.38719999999999     -1.53490000000000     -5.33200000000000
H            -0.11499999999999     -2.31610000000001     -5.81039999999999
C            1.39619999999996     -3.67629999999997     -5.07900000000002
H            0.68960000000002     -4.46880000000001     -4.78920000000000
H            2.18000000000002     -3.67720000000000     -4.30460000000002
H            -0.06589999999999     1.67850000000000     -0.25540000000001
H            0.04210000000000     -1.69950000000000     -0.34360000000000
C            2.00209999999999     -3.98780000000000     -6.43650000000003
H            2.51549999999997     -4.95510000000001     -6.44429999999999
H            1.22990000000001     -4.01480000000001     -7.21559999999997
H            2.73150000000009     -3.22130000000002     -6.72699999999999
H            -0.55460000000000     1.37560000000002     -3.11280000000000
P            2.20719999999996     0.00000000000014     0.00000000000009
C            -2.39923653727550     0.57489466784774     1.36131828132145
H            -3.38154736334487     0.29013296464589     1.76121826824859
H            -2.37106618926239     1.66239558452798     1.26997817776118
C            -0.03210000000000     -0.00000000000000     1.70950000000000
C            1.08679271587452     -0.29308626952709     2.48112527659032
C            0.95833386545374     -0.33823735165857     3.86138580463911
H            1.81895034614150     -0.56229682501721     4.47761450453192
C            -1.27437427570839     0.21093506553331     2.29567238875692
C            -1.39150760976342     0.15584056924326     3.67651766114842
H            -2.35054671005918     0.32150782002347     4.14875194409560
C            -0.27513635035660     -0.11373287993168     4.45332563208711
H            -0.36824152386433     -0.15784949554050     5.52852212318749
C            2.35747239603891     -0.62241097035762     1.75049103832221
H            2.42618977042589     -1.71170317741828     1.67719239410032
H            3.24631569250659     -0.25121360125964     2.26536710865046
N            -2.20720000000001     -0.00000000000007     -0.00000000000004
C            4.60990229486950     1.64048348402423     0.29400266099566
H            4.89864146603147     0.96745145477740     1.09628271777573
H            4.96183610286253     2.63853969923661     0.55573545728850
H            5.11564004601616     1.34896265969795     -0.62221274546132
C            3.09520568278146     1.68924518242769     0.11139502638203
C            2.49205931276656     2.40905527012081     1.31888970054003
H            1.40830445632458     2.34041873038788     1.29391026871016
H            2.77402712485504     3.46101908799081     1.29657450010286
H            2.84350063630384     1.98579870390668     2.25601933697021
C            2.76432505199066     2.48856652116150     -1.14788166733423
H            3.14625828641645     2.00740369896566     -2.04563002891500
H            3.20181056324322     3.48435786726175     -1.08460820190462
H            1.68709153966134     2.59063040855264     -1.23775774283061
C            3.40398145474659     -1.25276129022235     -0.87266023142601
C            4.77017270159655     -1.46170167617745     -0.20896784567547
H            5.47536822527556     -0.67333402812393     -0.44266371440259
H            5.19212519131250     -2.39255274530241     -0.59004407135604
H            4.68811562188356     -1.55738565323121     0.86944670368397
C            -2.98590019804466     0.79638515434323     -0.98134371029281
H            -4.06060392678491     0.65992604672433     -0.77411126686319
H            -2.78420445075965     0.36593840234937     -1.96716069975385
C            -2.81610015171787     -1.34989042441841     -0.03870981636667
H            -2.56431863388116     -1.79432014142702     -1.00545171784805
H            -3.91300290760310     -1.24073207288469     0.00641602831966
C            -2.41676678242570     -2.32964524784794     1.06020119747526
H            -2.69441666853595     -1.94503854704084     2.04112293692371
H            -1.33874200935256     -2.46819153004437     1.04876466426490
C            3.62666704036863     -0.81140865696699     -2.32017802775275
H            2.68324273778724     -0.70036639523744     -2.84814274615172
H            4.21998473857381     -1.55807464507311     -2.84960354146340
H            4.16492832603629     0.13246625826177     -2.36857006134044
C            2.72300993903618     -2.62605937348168     -0.87157616092215
H            2.86175574131449     -3.13114312543774     0.08181286641387
H            3.15472761169476     -3.25731474958985     -1.64807681895627
H            1.65625443216189     -2.54245707332895     -1.04157118606149
C            -2.72948530145627     2.30322133185397     -1.05165874779383
H            -3.15195511799820     2.80582344294624     -0.17908142118299
H            -1.65844121777047     2.49270377090132     -1.05912995733902
C            -3.37021247350712     2.90218672007825     -2.29811450732118
H            -3.19237300400167     3.97476207233666     -2.32702010945915
H            -4.44596754160718     2.73445904738033     -2.29849253747169
H            -2.95504181498953     2.46213889292158     -3.20236286918206
C            -3.11400408948507     -3.66640482833199     0.83120970560251
H            -2.83816266174884     -4.37178936961911     1.61049068560797
H            -2.82817930422902     -4.08854696761699     -0.12976789655234
H            -4.19675423456923     -3.54730274670420     0.84417050279932

B 1 2 F
B 1 3 F
B 2 3 F

C P N H 0
6-31G**
******
Ir 0
SDD
******

Ir 0
SDD

--Link1--
%nprocshared=12
%mem=24GB
%oldchk=TS-1olefin-disso
# opt(ts,readfc,nofreeze,noeigentest) guess=read geom=allchk freq int=grid=ultrafine M06 gen pseudo=read

C P N H 0
6-31G**
******
Ir 0
SDD
******

Ir 0
SDD


