%nprocshared=12
%mem=24GB
%chk=TS-BHT-1-2
# opt=(modredundant) int=grid=ultrafine M06 gen pseudo=read

Title

-1 1
Ir            -0.01030000000012     -0.12269999999994     -0.41600000000011
C            0.01180000000300     -0.03449999999801     -2.61919999999908
C            -0.28319999999930     -1.41750000000249     -2.36560000000001
H            -1.34690000000021     -1.66200000000013     -2.41570000000015
C            0.55790000000340     -2.51270000000066     -2.99190000000094
C            0.23589999999851     -3.93200000000247     -2.53909999999857
H            1.62100000000011     -2.28999999999973     -2.85740000000035
H            0.37860000000057     -2.43800000000072     -4.07759999999875
H            1.07690000000008     -4.59959999999970     -2.78100000000025
H            0.14310000000055     -3.95750000000001     -1.43980000000066
H            -0.09139999999994     -1.84429999999990     -0.87199999999987
H            -0.02799999999995     1.48720000000005     -0.22769999999996
H            0.98119999999966     0.19449999999963     -3.06680000000062
H            -0.79029999999859     0.59319999999691     -3.00620000000017
C            -1.03340000000144     -4.49670000000518     -3.16719999999932
H            -1.86109999999901     -3.78100000000160     -3.04680000000108
H            -0.88159999999953     -4.59500000000092     -4.25279999999994
C            -1.43050000000027     -5.83579999999885     -2.57039999999965
H            -2.32119999999911     -6.25390000000042     -3.05160000000001
H            -0.62049999999758     -6.56909999999819     -2.67319999999880
H            -1.64560000000431     -5.73680000000090     -1.49820000000915
P            2.20720000000094     -0.00000000000141     0.00000000000007
C            -2.40177258883053     0.54863907737601     1.37852160142458
H            -3.36413389780623     0.20593639014038     1.78136365266560
H            -2.45293641886463     1.63769875201055     1.30864304931151
C            -0.03210000000179     0.00000000000006     1.70950000000007
C            1.08926671318415     -0.19941012650250     2.50780565618821
C            0.97740356313971     -0.16254389709289     3.88919368687033
H            1.84732200688150     -0.32866708332369     4.51172939569379
C            -1.26194092559474     0.23968224208299     2.30773675317513
C            -1.37819062218805     0.27332522414355     3.68980287761464
H            -2.33868103482698     0.45679554569530     4.15410117053441
C            -0.25743454634234     0.06444751568505     4.47672490288035
H            -0.34629351260751     0.07631560515421     5.55367665855427
C            2.36665548123806     -0.51817375730643     1.79108889943603
H            2.49281099358636     -1.60458963376943     1.79295401104136
H            3.24025154204210     -0.07615894576798     2.27438538423691
N            -2.20720000000048     -0.00000000000040     0.00000000000211
C            4.52294922550912     1.73741471942992     0.31587683570262
H            4.79564542452243     1.12063317273614     1.16743074882109
H            4.83387829153354     2.75869321134255     0.53566937391528
H            5.07711333737663     1.41149325201545     -0.55910711565104
C            3.01622627237790     1.72897475412431     0.06472161724700
C            2.35332053644431     2.49681191589411     1.21032685725650
H            1.27287304214132     2.40290581317832     1.16004729144149
H            2.61496426739052     3.55175344771469     1.14246712640269
H            2.68286144155243     2.12936724737697     2.17831551920091
C            2.72611336811485     2.43750469584559     -1.25598891940596
H            3.20596779579139     1.92836780174645     -2.08792067520053
H            3.09621260082009     3.46132377207137     -1.22178377361742
H            1.65500305122631     2.45478070922083     -1.43363882056693
C            3.52421441931879     -1.23805076682411     -0.70534845753756
C            4.87416595482865     -1.36874361423979     0.00970202698368
H            5.55786268516396     -0.56038177723018     -0.21764154136329
H            5.34330895104265     -2.29093051808619     -0.33706912579453
H            4.76132374187213     -1.44419802773145     1.08705399521894
C            -2.97098568545834     0.88304005679072     -0.92361274746479
H            -4.00502406876827     0.95411174113217     -0.54837597692707
H            -3.01419595409306     0.39186079246397     -1.90015764261154
C            -2.90563343794562     -1.30153099389217     -0.05077598330147
H            -2.82244821353073     -1.70244783759698     -1.06466286003627
H            -3.98025547896747     -1.13386318629840     0.13532736611074
C            -2.42355651491359     -2.36512167192200     0.93009222254830
H            -2.54409207344482     -2.02155397834708     1.95731490536858
H            -1.36222643357224     -2.55604839502431     0.77477018950245
C            3.78976906210959     -0.87479458287480     -2.16659860727822
H            2.86548233332046     -0.62970562725804     -2.68173428882305
H            4.27294268926049     -1.70133306183851     -2.68930104704210
H            4.44876040229550     -0.01202234425785     -2.23466538644421
C            2.86953405514009     -2.62343828728988     -0.59188606722526
H            3.13369480407109     -3.10107360850345     0.34968130018447
H            3.20754946201436     -3.27918579925233     -1.39306128806839
H            1.78781929676175     -2.55106379494269     -0.62861424850187
C            -2.45460369442801     2.30944715633961     -1.13568071382559
H            -2.14234880783841     2.75899437135197     -0.19384712158812
H            -1.58008098734256     2.29382770999705     -1.78202669270704
C            -3.53390560140658     3.18969615612342     -1.75764336192827
H            -3.13896972877654     4.18708010450684     -1.93593713217340
H            -4.39302069909367     3.27805183116395     -1.09459174991400
H            -3.87259198936482     2.78068328733903     -2.70723754844056
C            -3.22036531995528     -3.64829291292682     0.72278967791786
H            -2.88134909044078     -4.42147031178557     1.40717002902255
H            -3.10362159278944     -4.01452109761740     -0.29584250033991
H            -4.28101882897943     -3.47594625285226     0.90021606456570

B 1 2 F
B 2 3 F
B 3 11 F
B 11 1 F

C P N H 0
6-31G**
******
Ir 0
SDD
******

Ir 0
SDD

--Link1--
%nprocshared=12
%mem=24GB
%oldchk=TS-BHT-1-2
# opt(ts,readfc,nofreeze,noeigentest) guess=read geom=allchk freq int=grid=ultrafine M06 gen pseudo=read

C P N H 0
6-31G**
******
Ir 0
SDD
******

Ir 0
SDD


