%nprocshared=12
%mem=24GB
# opt int=grid=ultrafine M06 gen pseudo=read

Title

0 1
Ir            -0.01040000000000     -0.11320000000000     -0.40740000000000
C            0.06620000000001     0.48599999999999     -2.55360000000000
C            -0.31960000000000     -0.86340000000000     -2.54700000000000
H            -1.39010000000000     -1.06660000000000     -2.62170000000000
C            0.52180000000000     -1.93680000000001     -3.19220000000000
C            0.14450000000001     -3.37679999999999     -2.86290000000000
H            1.57970000000000     -1.76080000000000     -2.97630000000000
H            0.42400000000000     -1.80530000000000     -4.28520000000000
H            0.98630000000000     -4.04320000000000     -3.10940000000000
H            -0.01140000000000     -3.47390000000000     -1.77580000000000
H            0.05020000000000     -1.77280000000000     -0.14760000000000
H            -0.06350000000000     1.54970000000000     -0.26860000000000
H            1.07650000000001     0.73780000000000     -2.88100000000000
H            -0.65900000000000     1.27470000000000     -2.74000000000000
C            -1.09020000000000     -3.86790000000000     -3.60890000000001
H            -1.92520000000000     -3.16840000000000     -3.45260000000000
H            -0.88500000000000     -3.84909999999999     -4.69020000000000
C            -1.50760000000001     -5.26500000000001     -3.18280000000001
H            -2.38170000000000     -5.62260000000000     -3.73799999999999
H            -0.69380000000000     -5.98410000000000     -3.34260000000001
H            -1.75700000000000     -5.28950000000000     -2.11390000000001
P            2.14079999999998     -0.00000000000003     0.00000000000001
N            -3.29874457708650     0.10773954069900     -0.72623512151224
N            -2.55967046386148     0.20634265687096     1.27687555354192
N            1.90152341807837     -0.63234402440640     2.70805542415390
N            3.98408305887316     -0.80432356777930     1.92528842377839
C            2.95377504529782     1.61707214302510     -0.37923026846342
C            3.35000529151312     2.45928768162048     0.65553535327155
H            3.23195116744683     2.12208607482067     1.67704285697335
C            3.88456781902913     3.70835531896896     0.39577948132769
H            4.19351752690257     4.34123352140027     1.21554699107427
C            4.02014895865784     4.15326185742517     -0.90796617507737
H            4.43553702244967     5.12904997948565     -1.11392005303986
C            3.60486644124915     3.33937528160343     -1.94795045784764
H            3.68878154638847     3.67939975788031     -2.97097240704664
C            3.07447673163774     2.09065733171764     -1.68332081812944
H            2.74830223258517     1.48307485115550     -2.51302227339906
C            3.17886671310151     -1.18311193303768     -0.95556231363998
C            4.12723799451099     -0.86425983589203     -1.92627161193026
H            4.41407446879157     0.16202975920348     -2.09949776068715
C            4.71456486134735     -1.85998059354107     -2.68677251897344
H            5.42201642361689     -1.59117791513957     -3.45909270086876
C            4.39512749263467     -3.19084494461809     -2.47492269553235
H            4.84221814201576     -3.96131863773954     -3.08602311394086
C            3.49927856408929     -3.52416707275730     -1.46902912216550
H            3.25960778267064     -4.56113709243941     -1.28109321730399
C            2.89948733322027     -2.53154563488503     -0.72247294975841
H            2.17615871413418     -2.78526269443255     0.03996511720491
C            2.64366263647495     -1.42394694444791     3.56170166324627
H            2.21291433930080     -1.90315463431082     4.41568550781365
C            3.90020754728563     -1.52546987027211     3.07751830018870
H            4.74300204874913     -2.06211166105531     3.46574371257354
C            2.74083146293757     -0.20781134783186     1.67863854879314
C            0.59464025985610     -0.23158383102266     2.94324728214207
C            -0.34980000000065     0.00000000000016     1.91800000000003
C            -1.65239897501483     0.19415445929527     2.32759626447394
C            -2.04337873713790     0.31687033186704     3.66183503570189
H            -3.06892611513695     0.50720611302840     3.93285397072211
C            -1.07994842706150     0.18676965053330     4.64389517906499
H            -1.34317924235611     0.30103366236619     5.68499742140671
C            0.21722416841070     -0.10900650615328     4.29194273186563
H            0.96678795414138     -0.22058932662809     5.06135225463683
C            -2.14080000000000     0.00000000000010     -0.00000000000009
C            -4.37320852841836     0.33943827489403     0.09358036494037
H            -5.37030344694058     0.44210811679184     -0.28257029716681
C            -3.90778130779041     0.40303734095487     1.35709754717571
H            -4.42131191772898     0.57340093038496     2.27895541504099
C            -3.50375173600220     0.04170820940763     -2.14813116048610
H            -2.72820642696343     0.59234686188866     -2.67488650604121
H            -4.46756941241088     0.49665114495222     -2.37861873198663
H            -3.52462825836935     -0.99440163140879     -2.49498715660947
C            5.18743069888143     -0.55851619036977     1.19008516851650
H            5.04609191678596     0.30574531661199     0.54378197527553
H            5.45600850165153     -1.42090516116048     0.57134172643509
H            6.01072948109057     -0.35381076586359     1.87842731563058

P C H N 0
6-31G**
******
Ir 0
SDD
******

Ir 0
SDD


