%nprocshared=12
%mem=24GB
%chk=TS-BHT-1-2
# opt=(modredundant) int=grid=ultrafine M06 gen pseudo=read

Title

0 1
Ir            -0.01030000000000     -0.12270000000000     -0.41600000000000
C            0.01180000000000     -0.03450000000000     -2.61920000000000
C            -0.28320000000000     -1.41750000000001     -2.36560000000000
H            -1.34690000000000     -1.66200000000000     -2.41570000000000
C            0.55790000000000     -2.51270000000001     -2.99190000000000
C            0.23590000000000     -3.93200000000000     -2.53909999999999
H            1.62100000000000     -2.29000000000000     -2.85740000000000
H            0.37860000000000     -2.43800000000000     -4.07760000000000
H            1.07690000000000     -4.59960000000000     -2.78100000000000
H            0.14310000000000     -3.95750000000000     -1.43980000000000
H            -0.09140000000000     -1.84430000000000     -0.87200000000000
H            -0.02800000000000     1.48720000000000     -0.22770000000000
H            0.98120000000001     0.19450000000000     -3.06680000000000
H            -0.79030000000000     0.59320000000000     -3.00620000000000
C            -1.03340000000000     -4.49670000000000     -3.16720000000000
H            -1.86110000000000     -3.78100000000000     -3.04680000000000
H            -0.88160000000000     -4.59500000000000     -4.25280000000000
C            -1.43050000000001     -5.83580000000000     -2.57040000000000
H            -2.32120000000000     -6.25390000000000     -3.05159999999999
H            -0.62050000000000     -6.56910000000000     -2.67320000000000
H            -1.64560000000000     -5.73680000000000     -1.49819999999999
P            2.14080000000000     0.00000000000000     -0.00000000000001
N            -3.29937961772911     0.02436491667558     -0.72775390648455
N            -2.55586943208541     0.27714253957267     1.26260520328772
N            1.87363367758434     -0.64622004168681     2.71876571750882
N            3.93395215500603     -0.95682333545789     1.92705146758292
C            2.95417825485669     1.62608550390032     -0.32211113789049
C            3.69653469189820     2.29514158182788     0.64352444178814
H            3.79806900051790     1.86068496666925     1.62879533533823
C            4.28522244134140     3.51571744231759     0.36236839519208
H            4.86470031898528     4.01982502637453     1.12308756387557
C            4.13104420437230     4.09377260884789     -0.88549727942422
H            4.59273459948643     5.04558455454898     -1.10540633217638
C            3.36305990519278     3.45365086630131     -1.84463286147791
H            3.21735137198277     3.91000901003113     -2.81374576725416
C            2.77535346995679     2.23585474368647     -1.56034376699980
H            2.14904366444372     1.75554491025400     -2.29638856906361
C            3.21202224021144     -1.11361321112602     -0.98447052114322
C            4.04710541430383     -0.72053151423904     -2.02752254123600
H            4.15721072751694     0.32781684005116     -2.26621125337627
C            4.73299659579086     -1.66731013011196     -2.76576028012857
H            5.36645704603863     -1.35143477485982     -3.58288939714434
C            4.60958998737205     -3.01631664737052     -2.47014075330534
H            5.14599202936344     -3.75071842349032     -3.05300577741329
C            3.78994700851680     -3.41719699389450     -1.42450105717571
H            3.69013786918415     -4.46749371280672     -1.18839088541553
C            3.09530682638957     -2.47515683736771     -0.69414572373569
H            2.43879839242914     -2.78164058089060     0.11087291085087
C            2.56137483449848     -1.48290009479504     3.57084779952784
H            2.09640903113127     -1.92583948924924     4.42707413712894
C            3.80643869179603     -1.66862834978146     3.08546308028513
H            4.61286923981017     -2.25970698475691     3.47157507766412
C            2.73493727590833     -0.26811174649920     1.68562271290867
C            0.58335334522965     -0.18639860581589     2.95528458415548
C            -0.34980000000025     -0.00000000000032     1.91800000000042
C            -1.64156018402738     0.30145162462008     2.31223059306019
C            -2.02104777791444     0.53368140103541     3.63277205084807
H            -3.03113427177211     0.81179319698691     3.88878790994456
C            -1.06640693530631     0.39903447310598     4.62366997970325
H            -1.32635517551333     0.58247917663396     5.65587141831017
C            0.21523297686399     0.01429212842750     4.29470101089221
H            0.95422707117441     -0.10500506049322     5.07367186958241
C            -2.14080000000004     0.00000000000024     0.00000000000007
C            -4.37736913050318     0.28802435370280     0.07644591561685
H            -5.37648920665341     0.34064543295500     -0.30504058696676
C            -3.90794899742777     0.44971724683641     1.33162583202125
H            -4.42696488631329     0.66677352271445     2.24062236133367
C            -3.48991311594059     -0.19047564973010     -2.13582673808345
H            -2.64814810312879     0.20324128114101     -2.69700707033209
H            -4.39329887197288     0.33063262429384     -2.45371406351344
H            -3.61207143641698     -1.25446917263767     -2.35765582286225
C            5.17564005464978     -0.74389764702109     1.24528724419706
H            5.05420561235105     0.03978318549552     0.50152802530864
H            5.50543766315947     -1.65806726716437     0.74215975875830
H            5.95006274947993     -0.43819616535611     1.95478259391897

B 1 2 F
B 2 3 F
B 3 11 F
B 11 1 F

P C H N 0
6-31G**
******
Ir 0
SDD
******

Ir 0
SDD

--Link1--
%nprocshared=12
%mem=24GB
%oldchk=TS-BHT-1-2
# opt(ts,readfc,nofreeze,noeigentest) guess=read geom=allchk freq int=grid=ultrafine M06 gen pseudo=read

P C H N 0
6-31G**
******
Ir 0
SDD
******

Ir 0
SDD


