%nprocshared=12
%mem=24GB
%chk=TS-CH-Add-1-2
# opt=(modredundant) int=grid=ultrafine M06 gen pseudo=read

Title

0 1
Ir            -0.00039999999999     0.10810000000000     -0.34669999999998
C            0.06130000000001     0.31670000000001     -2.63969999999999
C            -0.34020000000000     -1.00749999999999     -3.28000000000001
H            -1.35050000000001     -1.28060000000000     -2.95440000000000
C            -0.31100000000002     -0.94090000000001     -4.80530000000000
C            -0.66810000000002     -2.25269999999996     -5.49310000000002
H            0.68699999999999     -0.60959999999998     -5.13360000000001
H            -1.01360000000003     -0.15630000000000     -5.13610000000000
H            -0.61210000000001     -2.11770000000001     -6.58479999999999
H            0.08609999999999     -3.01830000000000     -5.24679999999999
H            0.31270000000000     -1.83000000000001     -2.94360000000000
H            -0.01570000000002     1.30659999999999     -1.36560000000001
H            1.07159999999998     0.59120000000001     -2.97560000000000
H            -0.59140000000001     1.08330000000000     -3.09580000000000
C            -2.04979999999999     -2.78669999999997     -5.13359999999996
H            -2.06280000000001     -3.10019999999999     -4.07929999999999
H            -2.78680000000001     -1.96960000000001     -5.21299999999998
C            -2.46590000000003     -3.95380000000007     -6.01320000000001
H            -3.44770000000001     -4.35189999999998     -5.73439999999998
H            -2.51370000000001     -3.65550000000000     -7.06820000000000
H            -1.74160000000004     -4.77529999999998     -5.94040000000001
P            2.14080000000000     -0.00000000000002     0.00000000000003
N            -3.28285290443184     -0.03447615252524     -0.74306356216478
N            -2.58872295364424     -0.00656239246987     1.27750426368574
N            1.90931870335941     -0.56173649927568     2.73065296258540
N            4.00003799949637     -0.66224912500254     1.98894886477115
C            3.03292947109094     1.54327075950656     -0.46376260734547
C            3.23576876529524     2.52510075615376     0.50370385070364
H            2.99710082789495     2.29514723616711     1.53404079251710
C            3.73294924603315     3.76850808174256     0.16283419165349
H            3.88923256290993     4.51541523465132     0.92859235186040
C            4.01750510694701     4.06385869968520     -1.15993791545141
H            4.39908156533528     5.03761487750007     -1.43086268952673
C            3.79321885395030     3.10738812299642     -2.13691850186084
H            4.00047835407790     3.33665097008222     -3.17286348543048
C            3.29658900393888     1.86433508216855     -1.79358863803757
H            3.11439647308339     1.13062727235636     -2.56516009612870
C            2.97794090559410     -1.26512000589851     -1.02093843707292
C            4.20213141089283     -1.15937312088564     -1.68159860349252
H            4.78594354506436     -0.25319272953089     -1.60903536565862
C            4.66344379391983     -2.20138269419870     -2.46315619990094
H            5.60474934127208     -2.09915739486515     -2.98610420983975
C            3.92589753390672     -3.36815833745529     -2.59451706155544
H            4.28994657310886     -4.17283001577704     -3.21625495027903
C            2.71441118882906     -3.49194338534831     -1.92761081654691
H            2.13251792792583     -4.39760797945468     -2.03014309654549
C            2.25243711800679     -2.45326629178622     -1.14827197306357
H            1.29926168836182     -2.52996641086786     -0.63151531082201
C            2.65759399563729     -1.32790745898295     3.59970553495219
H            2.22673151816528     -1.82146011113675     4.44545568898582
C            3.92663419265511     -1.38346781269854     3.14392841492267
H            4.78175269911696     -1.88433737838005     3.55194493743521
C            2.74292099584060     -0.12744303006541     1.70423638794043
C            0.57793530183043     -0.21517164339893     2.96089438706513
C            -0.34980000000074     -0.00000000000126     1.91799999999930
C            -1.67649820990887     0.03392419992122     2.33503499280028
C            -2.09859111048360     0.04488183573330     3.65676451335367
H            -3.14410783629505     0.10246427488559     3.91744459991820
C            -1.13923752786971     -0.00991908496794     4.65326443652249
H            -1.42731564594610     0.04226400944279     5.69297541040653
C            0.18301280045200     -0.16595703952666     4.30709418866285
H            0.92852460156596     -0.22933530678348     5.08662210433158
C            -2.14080000000019     0.00000000000142     -0.00000000000208
C            -4.38803661128992     -0.10654328175079     0.06214277082862
H            -5.38277975625204     -0.15951615698955     -0.33071858528953
C            -3.94818664620678     -0.08688908981823     1.34031974665881
H            -4.49625011427094     -0.12897743543414     2.25751530113093
C            -3.41813734338096     0.06860780996640     -2.16858778697768
H            -2.53843509671586     0.55146624623888     -2.58052665570006
H            -4.29894026177221     0.66883963940280     -2.40160473367575
H            -3.54387126881763     -0.91770699904823     -2.62362627843704
C            5.21366548631005     -0.35864058513084     1.29267329094387
H            5.03989475416625     0.48186643422717     0.62384133638953
H            5.55708080903470     -1.21962666442034     0.71033845302941
H            5.99562921690507     -0.08505857259153     2.00584697618834

B 1 12 F
B 1 2 F
B 2 12 F

P C H N 0
6-31G**
******
Ir 0
SDD
******

Ir 0
SDD

--Link1--
%nprocshared=12
%mem=24GB
%oldchk=TS-CH-Add-1-2
# opt(ts,readfc,nofreeze,noeigentest) guess=read geom=allchk freq int=grid=ultrafine M06 gen pseudo=read

P C H N 0
6-31G**
******
Ir 0
SDD
******

Ir 0
SDD


