%nprocshared=12
%mem=24GB
# opt int=grid=ultrafine M06 gen pseudo=read

Title

-1 1
Ir            0.00609999999945     -0.03989999999970     -0.35490000000007
C            0.05870000000707     0.31170000000242     -2.53019999999875
C            -0.56840000001360     -0.60589999999638     -3.57980000000217
H            -0.55739999999997     -0.09390000000118     -4.55880000000027
C            0.11169999999778     -1.95669999999729     -3.74729999999348
C            -0.53710000000428     -2.86500000000229     -4.78520000001249
H            0.11470000000118     -2.47690000000031     -2.77489999999925
H            1.17450000000111     -1.80310000000022     -4.00750000000015
H            -0.06040000000199     -3.85750000000317     -4.75080000000046
H            -1.59390000000076     -3.03160000000032     -4.51290000000118
H            -1.63220000000096     -0.79370000000043     -3.36100000000066
H            0.00489999999995     -1.41500000000005     -1.06209999999979
H            1.10520000000148     0.46700000000033     -2.83879999999884
H            -0.41150000000039     1.30760000000044     -2.63100000000089
C            -0.46970000000476     -2.34560000001716     -6.21560000000488
H            -1.02540000000075     -1.40079999999955     -6.29679999999713
H            0.57610000000293     -2.10149999999853     -6.46040000000338
C            -1.01839999998909     -3.34659999998866     -7.21880000001142
H            -0.97750000000156     -2.96710000000179     -8.24569999999782
H            -0.45259999999787     -4.28670000000751     -7.18800000000026
H            -2.06530000000520     -3.59080000000368     -6.99639999999911
O            3.57743900187911     0.14728237908551     1.59906473427941
O            -3.56569956650854     0.45587330824209     1.55396242911470
N            2.00670000000335     -0.00000000000102     -0.00000000000410
N            -2.00669999999749     0.00000000000047     0.00000000000500
C            -0.00699999999444     0.00000000000007     1.54609999999963
C            1.20273937391268     0.05308141159392     2.23846087134952
C            1.21557362600601     0.21744576584111     3.62171025002077
H            2.16203174118743     0.23658794116270     4.13688505899010
C            0.01081792148788     0.36808987130976     4.30962731535332
C            -1.19872372612012     0.39700327091389     3.60717534756169
H            -2.13139320541098     0.56827947112336     4.12466583857647
C            -1.20666516665010     0.20421078493683     2.22908113944529
C            2.27978339339765     0.03716461627311     1.28253521225826
C            3.22479229657009     0.35389819385149     -0.70786828916019
H            3.37008987308415     -0.28376902984400     -1.58222602272712
C            4.30003113117963     0.13072754903442     0.37140854169737
H            4.78757111755276     -0.84569082382195     0.27045329746858
H            5.05927340702338     0.91239207968864     0.40386912662658
C            3.14222737494171     1.84142623636218     -1.14784617396978
H            4.13696361762106     2.17171600059371     -1.45258705508335
H            2.47151874521079     1.90679767669383     -2.00411240672742
C            2.61042983548256     2.67691154170239     -0.01759871576125
C            3.45972667766699     3.27793695957507     0.90162846810978
H            4.52960542202521     3.24364663909050     0.74861614110418
C            2.95190054436901     3.91809265452429     2.01919213687754
H            3.62775582419583     4.36952390795973     2.73091443400424
C            1.58582357141984     3.96827455938755     2.23244023168153
H            1.19068062989624     4.45079951293832     3.11420841301948
C            0.72666137498400     3.40284099687596     1.30547599106808
H            -0.34189780543603     3.44949010294097     1.46164066526079
C            1.23586385376705     2.76759355289894     0.18787836458087
H            0.55770663298991     2.33747124964841     -0.54428125289300
C            -0.03268187902190     0.51762044949865     5.82604009067718
C            1.35170012550752     0.41536797078394     6.47269442251577
H            1.25300955035027     0.50036271298403     7.55338227020340
H            2.00603478727699     1.21506864118185     6.13291240394160
H            1.81568040156121     -0.54339359407986     6.25228164953645
C            -0.62635886018640     1.88730736620198     6.18346943174197
H            -0.65136550389410     2.01562831098388     7.26383474835511
H            -1.63986128220374     1.99152488567895     5.80551943798760
H            -0.01857701034259     2.68231775415468     5.75540691490477
C            -0.90820044076097     -0.59982115161305     6.41199112480163
H            -0.92979662539701     -0.52986618892638     7.49778790263042
H            -0.50675675794717     -1.57303310932435     6.13656397113064
H            -1.92999353396714     -0.53893729030603     6.04801567697212
C            -2.27890798104553     0.21268489733893     1.26435392142397
C            -4.27844350735994     0.47906753509974     0.32026710784455
H            -4.62836287935655     1.50144087743088     0.14184973384128
H            -5.14330791213808     -0.18189752881696     0.40213035588829
C            -3.25929605370860     0.00256953539824     -0.73763895490064
H            -3.19147204031253     0.69395896287415     -1.58288306520052
C            -3.58671091952823     -1.40503247638463     -1.26621970043119
H            -2.71535507856060     -1.75852860450559     -1.81881887799549
H            -3.74284547905636     -2.07379881160967     -0.41807648131792
C            -4.80298062766115     -1.36369195753596     -2.14483368900824
C            -4.73624811416699     -0.77915320001121     -3.40510868397909
H            -3.79250949013904     -0.39463506464240     -3.76339965511606
C            -5.86007446569477     -0.69344699540263     -4.20550362990213
H            -5.79076041126991     -0.23854537132930     -5.18273012450826
C            -7.07258474866482     -1.19062279928918     -3.75721819523444
H            -7.95165763516269     -1.12202932770014     -4.38073812957193
C            -7.14964660557799     -1.78048801964837     -2.50815376614348
H            -8.09049864884973     -2.17596403985724     -2.15405836193771
C            -6.02239220959852     -1.86480332704553     -1.70852530348186
H            -6.09127032162476     -2.33564015966903     -0.73763220203228

C O N H 0
6-31G**
******
Ir 0
SDD
******

Ir 0
SDD

