%nprocshared=12
%mem=24GB
%chk=TS-CH-Add-1-2
# opt=(modredundant) int=grid=ultrafine M06 gen pseudo=read

Title

-1 1
Ir            -0.00040000000001     0.10810000000001     -0.34670000000005
C            0.06129999999985     0.31670000000002     -2.63969999999998
C            -0.34020000000013     -1.00750000000000     -3.27999999999994
H            -1.35049999999993     -1.28060000000001     -2.95440000000003
C            -0.31099999999941     -0.94089999999974     -4.80530000000000
C            -0.66810000000008     -2.25269999999994     -5.49309999999961
H            0.68700000000012     -0.60959999999994     -5.13360000000007
H            -1.01360000000034     -0.15629999999986     -5.13610000000015
H            -0.61209999999999     -2.11769999999996     -6.58480000000004
H            0.08610000000027     -3.01830000000019     -5.24680000000001
H            0.31270000000006     -1.83000000000003     -2.94359999999988
H            -0.01570000000001     1.30660000000000     -1.36559999999995
H            1.07160000000004     0.59119999999999     -2.97559999999999
H            -0.59139999999996     1.08330000000004     -3.09579999999991
C            -2.04979999999976     -2.78669999999984     -5.13360000000008
H            -2.06280000000004     -3.10020000000001     -4.07930000000012
H            -2.78679999999978     -1.96960000000013     -5.21299999999999
C            -2.46589999999996     -3.95379999999953     -6.01319999999988
H            -3.44769999999956     -4.35190000000001     -5.73440000000011
H            -2.51369999999998     -3.65550000000004     -7.06819999999999
H            -1.74159999999991     -4.77530000000026     -5.94040000000001
P            2.11430000000013     0.00000000000008     -0.00000000000030
O            2.27567222492356     -0.17559275306259     1.64141424683009
N            -2.11430000000006     0.00000000000004     -0.00000000000040
N            -3.73770392534830     0.21555920285575     1.52209764858949
C            3.29555003769790     -1.29011692659292     -0.54331465420350
C            3.23184415455835     -1.76388758402049     -1.84775089002913
H            2.46133610166774     -1.39214487980525     -2.50639703242442
C            4.14842618238726     -2.69785359769512     -2.29663196507721
H            4.09634853394157     -3.06108852578446     -3.31321838858412
C            5.13275152736778     -3.16678326682048     -1.44235202851699
H            5.84857140642553     -3.89682650463738     -1.79139635780694
C            5.19900959795597     -2.69800904706125     -0.14024531546143
H            5.96855021091603     -3.06234779313392     0.52523007817803
C            4.28653598350469     -1.76055223047194     0.30894690347506
H            4.33475749079520     -1.38695326621167     1.32065899871849
C            3.19148804884685     1.46402725429221     -0.24137767926467
C            4.00090099400685     1.60052713054070     -1.36242958956013
H            4.06230580925203     0.79482130674866     -2.08030826037911
C            4.73439667376601     2.75756208182758     -1.55385798376489
H            5.36580005456239     2.85705942384929     -2.42497088109203
C            4.66088388534528     3.78893050018355     -0.63152345381584
H            5.23835299071164     4.68970653555985     -0.78068405267421
C            3.84210241503523     3.66495675722678     0.47967156259181
H            3.77908564643418     4.47056624249320     1.19701621297768
C            3.10275726859789     2.51241646864079     0.66770376755810
H            2.45336211460104     2.41193573373997     1.52551745712457
C            -0.09169999999952     -0.00000000000004     1.60619999999999
C            1.08128785013917     -0.16269241555915     2.34486635715184
C            1.03460057428972     -0.33957462571945     3.71338829371657
H            1.93993677529770     -0.47387634960408     4.28699889492202
C            -0.21240628723022     -0.37183696352214     4.33772520803023
H            -0.25547903157817     -0.53108987366249     5.40540883440812
C            -1.39128907425278     -0.22255735298965     3.63053321230768
H            -2.33420648025810     -0.28937833939243     4.15247107291683
C            -1.33106745787975     -0.01690683881966     2.25053574638365
C            -2.40797975648643     0.09414807445267     1.27727080697275
C            -4.43529138767156     0.32785808454844     0.25057323734891
H            -4.74345311792827     1.36956532159283     0.08878773762684
H            -5.32597935192540     -0.29961389234614     0.22408214572848
C            -3.35498764478085     -0.11974168503992     -0.74793445512056
H            -3.32262212684103     0.52412324943003     -1.63242268447654
C            -3.54588998917949     -1.58184309674574     -1.21808655180426
H            -2.61364302708885     -1.86650178920878     -1.71354263823428
C            -3.74929584377548     -2.55879183100102     -0.06204241509394
H            -2.96386767143254     -2.44259801239538     0.68169324273477
H            -3.71216246733331     -3.57995602566668     -0.43603711735459
H            -4.71215297317405     -2.41807802952948     0.42364657775254
C            -4.68133801116370     -1.68027684821048     -2.23252049113061
H            -4.77548956111646     -2.70204320672841     -2.59288687977648
H            -4.48981836370817     -1.03327539634976     -3.08577120811190
H            -5.63099000911561     -1.38783064375961     -1.78888896266633
C            -4.37219596593707     0.54163069506799     2.72872901070757
C            -3.89739510771914     1.57004543793303     3.53916434072764
H            -3.02619176415729     2.12906298622033     3.23176040179711
C            -4.52641555101692     1.85380861867058     4.73492516228874
H            -4.14221020992372     2.64529127342363     5.36195795063658
C            -5.64651889081330     1.13860103826077     5.14629414382626
C            -6.13183100424351     0.13710298055116     4.31607617842417
H            -7.00373539684126     -0.42785696883218     4.61357674845014
C            -5.50682497221351     -0.16090047178972     3.12007984796590
H            -5.88706704714282     -0.95754188191623     2.49818820576216
C            -6.31344706589071     1.45458701329986     6.44980219891440
H            -7.01713812506808     0.67330124226700     6.72598488998656
H            -6.85767101551367     2.39617132246720     6.37665483566518
H            -5.57471736441263     1.55835361880855     7.24229663344225

B 1 12 F
B 1 2 F
B 2 12 F

C P O N H 0
6-31G**
******
Ir 0
SDD
******

Ir 0
SDD

--Link1--
%nprocshared=12
%mem=24GB
%oldchk=TS-CH-Add-1-2
# opt(ts,readfc,nofreeze,noeigentest) guess=read geom=allchk freq int=grid=ultrafine M06 gen pseudo=read

C P O N H 0
6-31G**
******
Ir 0
SDD
******

Ir 0
SDD


