%nprocshared=12
%mem=24GB
# opt int=grid=ultrafine M06 gen pseudo=read

Title

-1 1
Ir            0.01039999999996     0.11320000000006     -0.40730000000000
C            -0.06619999999982     -0.48599999999988     -2.55360000000006
C            0.31959999999999     0.86349999999968     -2.54700000000000
H            1.39010000000008     1.06659999999998     -2.62179999999998
C            -0.52180000000001     1.93690000000026     -3.19210000000029
C            -0.14449999999998     3.37689999999991     -2.86279999999992
H            -1.57969999999971     1.76080000000019     -2.97620000000026
H            -0.42399999999993     1.80540000000009     -4.28519999999995
H            -0.98629999999994     4.04320000000016     -3.10930000000011
H            0.01140000000005     3.47390000000000     -1.77590000000005
H            -0.05019999999997     1.77280000000001     -0.14759999999999
H            0.06350000000003     -1.54960000000000     -0.26870000000003
H            -1.07650000000003     -0.73779999999990     -2.88100000000014
H            0.65899999999997     -1.27469999999997     -2.73999999999997
C            1.09019999999976     3.86800000000048     -3.60880000000088
H            1.92520000000028     3.16839999999987     -3.45250000000015
H            0.88500000000007     3.84920000000004     -4.69019999999933
C            1.50760000000016     5.26519999999904     -3.18270000000005
H            2.38169999999974     5.62269999999963     -3.73789999999968
H            0.69380000000094     5.98410000000014     -3.34260000000002
H            1.75699999999986     5.28959999999984     -2.11380000000032
Cl            -6.13592776970410     0.60439696469286     3.71663010434236
S            1.66219999999990     -0.00000000000003     -0.00000000000006
O            -1.66220000000021     -0.00000000000015     0.00000000000019
N            -0.13889999999996     0.00000000000093     2.25810000000019
N            -1.23333676799013     -0.10492432359441     2.86993098363917
C            -2.60437399100424     0.13241311310689     0.87581114074041
C            -3.95730400021735     0.12925000315355     0.42555787698455
H            -4.11561709454049     0.06109738490462     -0.64105201875817
C            -5.01153673573400     0.30078537942336     1.27493290273833
H            -6.02031602292952     0.36443605689440     0.89811878589686
C            -4.78468887614973     0.39445034534970     2.65907341693024
C            -3.52154608404252     0.30879820885734     3.16806446668249
H            -3.33621118153343     0.35609858934290     4.22959989335701
C            -2.41135509629536     0.18315953625914     2.30506690841344
C            1.04158910539025     -0.54006196691175     2.62852959166911
C            1.32178509534271     -0.89641479196033     3.96025048826923
H            0.54800318303771     -0.74450020328540     4.69676810133576
C            2.54708583980634     -1.41794903875512     4.28811968349365
H            2.75188915867108     -1.72135923517582     5.30340005755034
C            3.53013881551183     -1.55024433871591     3.30990854643301
H            4.49547365035159     -1.95831507093605     3.56771427266830
C            3.28287087842939     -1.15931012712212     2.01007922923493
H            4.07535552880964     -1.24101158592002     1.28744538842904
C            2.02669255776357     -0.69843765384132     1.62957400157310
C            2.92926620927014     -1.04012704995117     -0.96932521355479
H            3.13371655411367     -1.95524587997004     -0.42204800159293
H            2.43048853294148     -1.30457957304030     -1.89816956282920
C            4.18572005621554     -0.24807256076780     -1.27598595089868
H            4.88626161897979     -0.85615849646179     -1.84510166370193
H            4.67194453651158     0.08687531038967     -0.36519332408723
H            3.93659411988077     0.63276971074436     -1.86165269744588

C Cl O N S H 0
6-31G**
******
Ir 0
SDD
******

Ir 0
SDD


