%nprocshared=12
%mem=24GB
# opt int=grid=ultrafine M06 gen pseudo=read

Title

-1 1
Ir            -0.00610000000001     0.07059999999998     -0.35019999999999
C            -0.05870000000000     -0.08990000000000     -2.54780000000000
C            0.56839999999999     0.91580000000001     -3.51340000000000
H            0.55739999999999     0.49120000000000     -4.53310000000000
C            -0.11170000000002     2.27580000000000     -3.56239999999999
C            0.53710000000000     3.27129999999998     -4.51709999999997
H            -0.11470000000001     2.70939999999999     -2.54840000000000
H            -1.17449999999999     2.14570000000001     -3.83499999999999
H            0.06040000000000     4.25710000000002     -4.39629999999999
H            1.59389999999999     3.41350000000000     -4.23140000000000
H            1.63220000000000     1.08370000000000     -3.27890000000000
H            -0.00490000000000     1.50230000000000     -0.93460000000000
H            -1.10520000000001     -0.21759999999999     -2.86869999999999
H            0.41150000000001     -1.07330000000000     -2.73500000000000
C            0.46970000000001     2.87869999999997     -5.98740000000000
H            1.02539999999999     1.94439999999999     -6.15059999999999
H            -0.57610000000002     2.65680000000001     -6.25250000000000
C            1.01840000000000     3.96329999999998     -6.89940000000003
H            0.97749999999997     3.67479999999999     -7.95559999999999
H            0.45259999999998     4.89720000000001     -6.78689999999999
H            2.06529999999998     4.18710000000001     -6.65669999999999
Cl            -6.14446967794846     0.42862625355117     3.73075967594684
S            1.66219999999996     0.00000000000002     0.00000000000006
O            -1.66220000000006     -0.00000000000003     -0.00000000000002
N            -0.13890000000005     -0.00000000000001     2.25810000000005
N            -1.22598039127595     -0.12121133764678     2.93449196606729
C            -2.59417995596746     0.15817192886596     0.89615372693598
C            -3.93882905457160     0.19641974772181     0.43723785728472
H            -4.08382168631293     0.18435607744379     -0.63375735727301
C            -5.00488634229367     0.30010401624932     1.28257127124856
H            -6.01141384903130     0.36755086840902     0.90069296148691
C            -4.78221634740644     0.31449508332342     2.66856328230403
C            -3.51970010711226     0.22746739922312     3.17728077894096
H            -3.34180791571421     0.21959441812590     4.24106153529803
C            -2.39249786540171     0.15386756909405     2.32656690124272
C            1.02920127120697     -0.57627953360213     2.62876478325015
C            1.28575987704783     -1.03261775056213     3.93241499113686
H            0.51187969768677     -0.88661432716362     4.67079390695931
C            2.47427772297984     -1.64678520957281     4.23337154250345
H            2.65527766175870     -2.02277834466166     5.22901137341283
C            3.44895470148898     -1.78434971210619     3.24811230897945
H            4.38472504690281     -2.27073874083128     3.47904106701773
C            3.23027754896562     -1.30831322620080     1.97085249337004
H            4.01384534772706     -1.41816143672427     1.24134432732192
C            2.01143485843547     -0.74057145755863     1.62114202503188
C            3.04141951042814     -0.79789520873859     -1.02960038918069
H            3.25021465806511     -1.79818036627360     -0.65903510479546
H            2.60740259591168     -0.87305526856678     -2.02459367953152
C            4.27620512732657     0.08130139149576     -1.06690670927691
H            5.04060133257222     -0.36397839445354     -1.70159490062800
H            4.69001334766915     0.22531744096826     -0.07266481389513
H            4.01643002218860     1.05832829376642     -1.46606881153191

C Cl O N S H 0
6-31G**
******
Ir 0
SDD
******

Ir 0
SDD

