%nprocshared=12
%mem=24GB
# opt int=grid=ultrafine M06 gen pseudo=read

Title

-1 1
Ir            0.00000000000003     0.04849999999995     -0.30530000000001
H            0.02640000000001     -0.45300000000000     -1.83560000000000
H            -0.02630000000000     0.99830000000001     -1.60579999999999
Cl            -6.08636429590147     0.86584316649743     3.72772748738048
S            1.66219999999997     -0.00000000000005     0.00000000000009
O            -1.66219999999996     -0.00000000000003     -0.00000000000002
N            -0.13889999999997     0.00000000000003     2.25810000000003
N            -1.19390645187224     0.13449778195548     2.98229696940174
C            -2.58129493772043     0.12754650526111     0.91563110725968
C            -3.93534373741116     0.08928258837515     0.47881657288752
H            -4.09722112766630     -0.06803052753839     -0.57808393670606
C            -4.98634717306542     0.31440545627483     1.31772429378268
H            -5.99842573302836     0.33162518028297     0.94518322407035
C            -4.74467378972760     0.54095851919026     2.68363454730035
C            -3.47789536633089     0.49696926593359     3.18331399304763
H            -3.27721938059622     0.64178718790327     4.23319336413152
C            -2.36628304758255     0.26997944939703     2.33801532150020
C            1.11838558933263     -0.12592065534868     2.72180496382623
C            1.47535807520826     -0.08377186257753     4.08294055791968
H            0.68502070195059     0.05003232999089     4.80593609661611
C            2.79254827339483     -0.17979605768502     4.44744407088268
H            3.06840814091044     -0.14811499620957     5.49088716586362
C            3.78506116950124     -0.29096890992896     3.47219434666470
H            4.82218458385341     -0.34767208502178     3.76560265054988
C            3.45359206984994     -0.29685997318006     2.13366102653617
H            4.23527648374495     -0.31683839229518     1.39025645730690
C            2.12188274863505     -0.26117337109623     1.73940240889139
C            2.81781871223200     -1.30426319938824     -0.76485313537654
H            3.48996238808294     -1.66935372838433     0.00373284362850
H            2.17393449259086     -2.12103256196109     -1.08804553144966
C            3.57306840382659     -0.71618768727538     -1.93689742729813
H            4.18746107380421     -1.47989453370435     -2.40915634348909
H            4.21553595973045     0.09478626314628     -1.60615512510994
H            2.87653755229960     -0.32459255614838     -2.67360341774180

C Cl O N S H 0
6-31G**
******
Ir 0
SDD
******

Ir 0
SDD


