%nprocshared=12
%mem=24GB
%chk=TS-BHT-1-2
# opt=(modredundant) int=grid=ultrafine M06 gen pseudo=read

Title

-1 1
Ir            0.01030000000000     0.12280000000000     -0.41610000000000
C            -0.01180000000000     0.03450000000000     -2.61920000000000
C            0.28320000000000     1.41740000000000     -2.36570000000000
H            1.34690000000000     1.66200000000000     -2.41570000000000
C            -0.55790000000000     2.51270000000000     -2.99190000000000
C            -0.23590000000000     3.93190000000000     -2.53920000000000
H            -1.62100000000000     2.28990000000000     -2.85750000000000
H            -0.37860000000000     2.43790000000000     -4.07770000000000
H            -1.07690000000000     4.59950000000000     -2.78110000000000
H            -0.14310000000000     3.95740000000000     -1.43990000000000
H            0.09140000000000     1.84430000000000     -0.87200000000000
H            0.02799999999998     -1.48719999999996     -0.22770000000001
H            -0.98120000000000     -0.19450000000000     -3.06680000000000
H            0.79030000000000     -0.59330000000000     -3.00620000000000
C            1.03340000000000     4.49660000000000     -3.16730000000000
H            1.86110000000000     3.78090000000000     -3.04690000000000
H            0.88160000000000     4.59480000000000     -4.25290000000000
C            1.43050000000001     5.83570000000000     -2.57050000000001
H            2.32120000000000     6.25380000000000     -3.05170000000000
H            0.62050000000001     6.56910000000000     -2.67330000000000
H            1.64560000000000     5.73670000000000     -1.49830000000000
Cl            -5.67657825531068     -2.70233013276260     3.23007023519063
S            1.66220000000000     0.00000000000000     -0.00000000000000
O            -1.66220000000000     -0.00000000000000     -0.00000000000000
N            -0.13890000000002     0.00000000000000     2.25809999999999
N            -1.17367734335506     -0.53505011893660     2.81787892426799
C            -2.55607566967715     -0.52109990284366     0.76588208401856
C            -3.78162299353445     -0.97705470922229     0.20374535173644
H            -3.93469979472956     -0.79784353915578     -0.85188106848856
C            -4.72235218793106     -1.62336282829092     0.94713562109313
H            -5.63663427380606     -1.98121286651016     0.49945469086803
C            -4.48260817109291     -1.83870971090933     2.31592052365260
C            -3.33985214183472     -1.40209508134092     2.91870539203220
H            -3.15809193530464     -1.57962833362631     3.96671356355345
C            -2.33229078511210     -0.73741640577003     2.17535684803029
C            1.10696993814622     -0.25738268207125     2.70161503138832
C            1.45782639436587     -0.53153964736712     4.03354873583744
H            0.68147342018736     -0.49775168735539     4.78261801269911
C            2.75358261792450     -0.86262500903653     4.33336730042404
H            3.02274296723977     -1.10793312926307     5.35017314921139
C            3.72844917915656     -0.89967731050847     3.33054317506121
H            4.74498036611065     -1.15718862908207     3.58658016159095
C            3.39761754209912     -0.62522708650285     2.02415261412661
H            4.13201710463540     -0.65353648939009     1.23485728469868
C            2.07912446602381     -0.32063816571492     1.69142903047516
C            0.02571435536721     -2.64194282592602     -0.23786653266011
H            -0.12641774737145     -2.97345886944506     0.78678247960420
H            -0.81946701884615     -2.95359076005222     -0.84643442170024
C            1.34224281491860     -3.13730505692218     -0.79874370391825
H            1.38406522553185     -4.22332381643401     -0.76066960075243
H            2.17863077390896     -2.74307828220695     -0.22538945363253
H            1.46622454084253     -2.82570794608205     -1.83310888249869

B 1 2 F
B 2 3 F
B 3 11 F
B 11 1 F

C Cl O N S H 0
6-31G**
******
Ir 0
SDD
******

Ir 0
SDD

--Link1--
%nprocshared=12
%mem=24GB
%oldchk=TS-BHT-1-2
# opt(ts,readfc,nofreeze,noeigentest) guess=read geom=allchk freq int=grid=ultrafine M06 gen pseudo=read

C Cl O N S H 0
6-31G**
******
Ir 0
SDD
******

Ir 0
SDD


