%nprocshared=12
%mem=24GB
%chk=TS-CH-Add-1-2
# opt=(modredundant) int=grid=ultrafine M06 gen pseudo=read

Title

-1 1
Ir            0.00040000000007     0.05489999999998     -0.35899999999998
C            -0.06129999999998     0.87249999999998     -2.51130000000000
C            0.34019999999998     2.34340000000000     -2.50640000000001
H            1.35050000000002     2.44609999999999     -2.09400000000000
C            0.31099999999999     2.95210000000002     -3.90659999999999
C            0.66809999999997     4.43279999999995     -3.94969999999994
H            -0.68700000000000     2.79840000000001     -4.34690000000000
H            1.01360000000000     2.39189999999998     -4.54779999999998
H            0.61210000000000     4.78980000000000     -4.99000000000002
H            -0.08609999999997     5.01280000000001     -3.39259999999999
H            -0.31269999999999     2.93530000000001     -1.84340000000000
H            0.01570000000000     -0.57580000000001     -1.80009999999999
H            -1.07160000000000     0.77300000000001     -2.93370000000000
H            0.59139999999998     0.38340000000001     -3.25739999999999
C            2.04979999999997     4.75500000000000     -3.39249999999998
H            2.06280000000000     4.57469999999999     -2.30740000000003
H            2.78680000000000     4.05540000000001     -3.82200000000003
C            2.46590000000002     6.18959999999991     -3.67149999999996
H            3.44770000000002     6.42519999999998     -3.24640000000005
H            2.51370000000006     6.38399999999998     -4.75040000000005
H            1.74160000000014     6.89610000000002     -3.24600000000007
Cl            -6.09628349375916     0.73635960903909     3.75699117547716
S            1.66220000000007     0.00000000000017     -0.00000000000022
O            -1.66219999999988     -0.00000000000002     -0.00000000000006
N            -0.13890000000003     0.00000000000017     2.25809999999996
N            -1.21740436203410     -0.05036865479367     2.95147510349144
C            -2.58377719406857     0.17837613267656     0.90292694715364
C            -3.93187959988488     0.26810775674232     0.45680455030335
H            -4.09019961134029     0.23103544766147     -0.61196959201743
C            -4.98313295052433     0.45852561806531     1.30524463058525
H            -5.98731456651658     0.57212840279236     0.92833648713673
C            -4.75158341452709     0.50586495091900     2.69006482193509
C            -3.49314103052818     0.36627084230703     3.19231361600065
H            -3.30217835209148     0.38574358864236     4.25384962113369
C            -2.37903309381276     0.20986329390301     2.33495110319781
C            1.05041303666030     -0.52189495677432     2.63386763907438
C            1.34167620241887     -0.92056718484881     3.95135614194819
H            0.57563900750388     -0.77199164934912     4.69718032396211
C            2.55134844992046     -1.48847988844608     4.25716545058051
H            2.75452730928265     -1.82395552881635     5.26300905765718
C            3.52247049651337     -1.63408406778249     3.26805165709496
H            4.47268138499595     -2.08863833529762     3.50488227541500
C            3.27707227104408     -1.20423230093738     1.98074636250620
H            4.05332782933923     -1.31114244265776     1.24228642874618
C            2.03726827628493     -0.68762858701752     1.62724125053309
C            3.03385706298967     -0.79182466418375     -1.03941015717011
H            3.27640875555550     -1.77421631817765     -0.64451362233261
H            2.56999388215293     -0.91505256461567     -2.01722573689530
C            4.24748807757254     0.10892379258775     -1.15349382935875
H            4.99495157092136     -0.34067586402915     -1.80475908614005
H            4.69750105256612     0.29006805032481     -0.18153727138794
H            3.95447684806529     1.06770386533253     -1.57384633562090

B 1 12 F
B 1 2 F
B 2 12 F

C Cl O N S H 0
6-31G**
******
Ir 0
SDD
******

Ir 0
SDD

--Link1--
%nprocshared=12
%mem=24GB
%oldchk=TS-CH-Add-1-2
# opt(ts,readfc,nofreeze,noeigentest) guess=read geom=allchk freq int=grid=ultrafine M06 gen pseudo=read

C Cl O N S H 0
6-31G**
******
Ir 0
SDD
******

Ir 0
SDD


