%nprocshared=12
%mem=24GB
# opt int=grid=ultrafine M06 gen pseudo=read

Title

-1 1
Ir            -0.01040000000000     -0.11320000000000     -0.40740000000000
C            0.06620000000000     0.48600000000000     -2.55360000000000
C            -0.31960000000000     -0.86340000000000     -2.54700000000000
H            -1.39010000000000     -1.06660000000000     -2.62170000000000
C            0.52180000000000     -1.93680000000000     -3.19220000000000
C            0.14450000000000     -3.37680000000000     -2.86290000000000
H            1.57970000000000     -1.76080000000000     -2.97630000000000
H            0.42400000000000     -1.80530000000000     -4.28520000000000
H            0.98630000000000     -4.04320000000000     -3.10940000000000
H            -0.01140000000000     -3.47390000000000     -1.77580000000000
H            0.05020000000000     -1.77280000000000     -0.14760000000000
H            -0.06350000000000     1.54970000000000     -0.26860000000000
H            1.07650000000000     0.73780000000000     -2.88100000000000
H            -0.65900000000000     1.27470000000000     -2.74000000000000
C            -1.09020000000000     -3.86790000000000     -3.60890000000000
H            -1.92520000000000     -3.16840000000000     -3.45260000000000
H            -0.88500000000000     -3.84910000000000     -4.69020000000000
C            -1.50760000000000     -5.26500000000000     -3.18280000000000
H            -2.38170000000000     -5.62260000000000     -3.73800000000000
H            -0.69380000000000     -5.98410000000000     -3.34260000000000
H            -1.75700000000000     -5.28950000000000     -2.11390000000000
S            2.20210000000000     0.00000000000000     0.00000000000000
S            3.93398964965869     -0.13363034470157     2.45742073067359
S            -2.20210000000000     -0.00000000000000     0.00000000000000
S            -3.68162551676563     1.02715340885739     2.42166192201030
N            1.33224893450866     -0.17281348034072     2.49745897057932
N            -1.11920178228070     0.58353340513699     2.37796177311439
B            0.07470000000000     0.00000000000000     1.80300000000000
C            2.39758761185929     -0.10095641328443     1.64434004459554
C            3.10514960962393     -0.38183672657740     3.98705549012642
C            3.67574669128434     -0.56511637464040     5.23242244090156
H            4.74708557867039     -0.53967085752226     5.34644299541576
C            2.83801998641153     -0.78741157710353     6.31217437796368
H            3.26257369754565     -0.92688540296508     7.29379602190949
C            1.46171868205707     -0.84963296508004     6.13857207834257
H            0.82513649893072     -1.04624986268393     6.98723530987528
C            0.88756967496205     -0.66527493227357     4.89369410269812
H            -0.17972176564991     -0.73093990782221     4.76037133314400
C            1.71463302091579     -0.39890654354794     3.80912620202246
C            -2.25014281485423     0.46357548828562     1.60295834502283
C            -2.67598658875910     1.71947523135747     3.68877345609110
C            -3.07117473703996     2.55775386934937     4.71416614301744
H            -4.11365212269114     2.79314218644530     4.85220190453738
C            -2.09531931161602     3.11061513414307     5.52704264642524
H            -2.38071075339920     3.77927624941591     6.32384011136821
C            -0.75307640302411     2.84785776565805     5.29420737695309
H            0.00116750923724     3.32378812240859     5.90168680687580
C            -0.35723428655322     2.00066382842097     4.27487715797226
H            0.68867690503136     1.84823833439081     4.07307180908327
C            -1.32766914108239     1.39787413534970     3.48417881554517

C B N S H 0
6-31G**
******
Ir 0
SDD
******

Ir 0
SDD


