%nprocshared=12
%mem=24GB
# opt int=grid=ultrafine M06 gen pseudo=read

Title

-1 1
Ir            0.00610000000000     -0.03990000000000     -0.35490000000000
C            0.05870000000000     0.31170000000000     -2.53020000000000
C            -0.56840000000000     -0.60590000000000     -3.57980000000000
H            -0.55740000000000     -0.09390000000000     -4.55880000000000
C            0.11170000000000     -1.95670000000000     -3.74730000000000
C            -0.53710000000000     -2.86500000000000     -4.78520000000000
H            0.11470000000000     -2.47690000000000     -2.77490000000000
H            1.17450000000000     -1.80310000000000     -4.00750000000000
H            -0.06040000000000     -3.85750000000000     -4.75080000000000
H            -1.59390000000000     -3.03160000000000     -4.51290000000000
H            -1.63220000000000     -0.79370000000000     -3.36100000000000
H            0.00490000000000     -1.41500000000000     -1.06210000000000
H            1.10520000000000     0.46700000000000     -2.83880000000000
H            -0.41150000000000     1.30760000000000     -2.63100000000000
C            -0.46970000000000     -2.34560000000000     -6.21560000000000
H            -1.02540000000000     -1.40080000000000     -6.29680000000000
H            0.57610000000000     -2.10150000000000     -6.46040000000000
C            -1.01840000000000     -3.34660000000000     -7.21880000000000
H            -0.97750000000000     -2.96710000000000     -8.24570000000000
H            -0.45260000000000     -4.28670000000000     -7.18800000000000
H            -2.06530000000000     -3.59080000000000     -6.99640000000000
S            2.20210000000000     0.00000000000000     -0.00000000000000
S            3.92203824785616     0.04299170441865     2.49196085260891
S            -2.20210000000000     -0.00000000000000     0.00000000000000
S            -3.63796206236041     1.18688561108813     2.36647039314071
N            1.33431914657103     -0.11978520002799     2.52003110439648
N            -1.07035123098802     0.72177977551457     2.33363252874537
B            0.07470000000000     0.00000000000000     1.80300000000000
C            2.38775369913914     -0.00686151189796     1.67000673350856
C            3.10413440761950     -0.28546370573127     4.01282881955285
C            3.67140211796472     -0.48386051688717     5.25748658569965
H            4.74053753953066     -0.42778924670123     5.38307963090606
C            2.83309698615818     -0.76437347223315     6.32304600186473
H            3.25530927194675     -0.92257100699625     7.30294784218181
C            1.45890741838716     -0.86072525039948     6.14053269375444
H            0.82451149522167     -1.09795383674309     6.98041319933858
C            0.88728604143337     -0.66231049082275     4.89793046473167
H            -0.17753999761035     -0.75376669468438     4.75424437823791
C            1.71576201586351     -0.34968469770978     3.82622669236200
C            -2.20785817052284     0.59026818557956     1.56782926765344
C            -2.63895803231466     1.81898360500967     3.66772010276927
C            -3.04792415731059     2.60141934434277     4.73049151421815
H            -4.09285928283535     2.82852381368074     4.86679203171789
C            -2.08305421585155     3.09906575858808     5.59034491144675
H            -2.37880463641180     3.71708156956067     6.42341630331883
C            -0.73908242619096     2.83913490868573     5.36464411482789
H            0.00725751894289     3.26889805594388     6.01494770955555
C            -0.33033525359544     2.04772802078766     4.30603237927872
H            0.71936169169531     1.89224299745741     4.12403456219788
C            -1.29008468062908     1.49529092921260     3.46661789708780

C B N S H 0
6-31G**
******
Ir 0
SDD
******

Ir 0
SDD

