%nprocshared=12
%mem=24GB
# opt int=grid=ultrafine M06 gen pseudo=read

Title

-1 1
Ir            -0.00000000000000     -0.00000000000000     -0.31210000000000
S            2.20210000000000     0.00000000000000     -0.00000000000000
S            3.92190020383299     -0.33541565763535     2.47438092932562
S            -2.20210000000000     0.00000000000000     -0.00000000000002
S            -3.71279937820200     0.92077924334004     2.45616264927908
N            1.32109710426686     -0.24286110042264     2.49759631411463
N            -1.13607600992068     0.56526128558465     2.39486820522275
B            0.07469999999999     -0.00000000000000     1.80300000000000
C            2.39643550710788     -0.19287304703093     1.65092081087786
C            3.07150539153464     -0.53884711728174     3.99770076093420
C            3.62355600913862     -0.73287944418238     5.24953248016418
H            4.69410391266319     -0.75265992699489     5.37387990548349
C            2.76875579670988     -0.90029879466735     6.32648762365039
H            3.17929930603342     -1.03735766301239     7.31491884663276
C            1.39289627589159     -0.90800820708105     6.14139795412227
H            0.74105726100571     -1.06130951676197     6.98819614212630
C            0.83757524795011     -0.71763247354467     4.88872960039003
H            -0.23002574765342     -0.74474749469373     4.74775552110131
C            1.68225145574378     -0.49291861256391     3.80716323795925
C            -2.26525684306302     0.42431127310082     1.62367589759138
C            -2.72763473418787     1.60979795015096     3.73702027860145
C            -3.14850972073772     2.40577717043241     4.78482391290420
H            -4.19825202983772     2.60307080228600     4.92994690180338
C            -2.18867420836388     2.96703407810033     5.61122278130129
H            -2.49436885522279     3.60564010685859     6.42505470210818
C            -0.83885782345100     2.74922308074171     5.37249849734251
H            -0.10031627281035     3.23012227773972     5.99517902153551
C            -0.41692496499027     1.94208789939055     4.33156098751158
H            0.63213914099890     1.81723318810683     4.12602875087955
C            -1.36903024068753     1.33572702990325     3.52010590152818

C B N S H 0
6-31G**
******
Ir 0
SDD
******

Ir 0
SDD


