%nprocshared=12
%mem=24GB
%chk=TS-BHT-1-2
# opt=(modredundant) int=grid=ultrafine M06 gen pseudo=read

Title

-1 1
Ir            -0.01030000000000     -0.12270000000000     -0.41600000000000
C            0.01180000000000     -0.03450000000000     -2.61920000000000
C            -0.28320000000000     -1.41750000000000     -2.36560000000000
H            -1.34690000000000     -1.66200000000000     -2.41570000000000
C            0.55790000000000     -2.51270000000000     -2.99190000000000
C            0.23590000000000     -3.93200000000000     -2.53910000000000
H            1.62100000000000     -2.29000000000000     -2.85740000000000
H            0.37860000000000     -2.43800000000000     -4.07760000000000
H            1.07690000000000     -4.59960000000000     -2.78100000000000
H            0.14310000000000     -3.95750000000000     -1.43980000000000
H            -0.09140000000000     -1.84430000000000     -0.87200000000000
H            -0.02800000000000     1.48720000000000     -0.22770000000000
H            0.98120000000000     0.19450000000000     -3.06680000000000
H            -0.79030000000000     0.59320000000000     -3.00620000000000
C            -1.03340000000000     -4.49670000000000     -3.16720000000000
H            -1.86110000000000     -3.78100000000000     -3.04680000000000
H            -0.88160000000000     -4.59500000000000     -4.25280000000000
C            -1.43050000000000     -5.83580000000000     -2.57040000000000
H            -2.32120000000000     -6.25390000000000     -3.05160000000000
H            -0.62050000000000     -6.56910000000000     -2.67320000000000
H            -1.64560000000000     -5.73680000000000     -1.49820000000000
S            2.20210000000000     -0.00000000000000     0.00000000000000
S            3.93810695695751     0.01732321656618     2.47971863822028
S            -2.20210000000000     -0.00000000000000     -0.00000000000000
S            -3.66325947653264     1.15767107324342     2.37062957115101
N            1.34146038836636     -0.08495682751973     2.50322836866198
N            -1.10525535096677     0.65632680078407     2.34922092211603
B            0.07470000000000     0.00000000000000     1.80300000000000
C            2.40223871208619     0.00539236695835     1.65745285308307
C            3.10967486055674     -0.29984096493361     3.99567761164789
C            3.67353712468177     -0.52741392847014     5.23753436482367
H            4.74359741436389     -0.49391232863045     5.36175718697815
C            2.83267920195753     -0.81070877055237     6.30006023922331
H            3.25319624544472     -0.99094316706706     7.27691103020912
C            1.45754238153503     -0.88333073701695     6.11670218031369
H            0.81913971920058     -1.12506947148301     6.95224399222705
C            0.88946853871314     -0.65540850223428     4.87702464152180
H            -0.17613516056991     -0.72931978646346     4.73241133494660
C            1.72012674575993     -0.33585190571557     3.80947715398857
C            -2.23783717531457     0.54420137770357     1.58217231379986
C            -2.66173186514874     1.78829321207880     3.66818151597625
C            -3.06190779306251     2.59244771546931     4.71900011633171
H            -4.10436193393549     2.83123102584860     4.85280211246898
C            -2.09160871127445     3.10244863572061     5.56463091645043
H            -2.38026127210685     3.73942610872748     6.38583619579916
C            -0.74934151963020     2.83623546931122     5.33425755132868
H            0.00249909680731     3.28131801947486     5.96756164106590
C            -0.35010986713352     2.02226010339964     4.28968849141113
H            0.69681523762166     1.86880199803775     4.09625736139997
C            -1.31532982480641     1.45280295034448     3.46803147154532

B 1 2 F
B 2 3 F
B 3 11 F
B 11 1 F

C B N S H 0
6-31G**
******
Ir 0
SDD
******

Ir 0
SDD

--Link1--
%nprocshared=12
%mem=24GB
%oldchk=TS-BHT-1-2
# opt(ts,readfc,nofreeze,noeigentest) guess=read geom=allchk freq int=grid=ultrafine M06 gen pseudo=read

C B N S H 0
6-31G**
******
Ir 0
SDD
******

Ir 0
SDD


