%nprocshared=12
%mem=24GB
# opt int=grid=ultrafine M06 gen pseudo=read

Title

-1 1
Ir            -0.01040000000002     -0.11320000000000     -0.40740000000000
C            0.06619999999997     0.48599999999999     -2.55360000000001
C            -0.31960000000001     -0.86340000000002     -2.54700000000001
H            -1.39009999999999     -1.06660000000000     -2.62170000000000
C            0.52179999999992     -1.93680000000002     -3.19219999999999
C            0.14450000000001     -3.37680000000003     -2.86290000000000
H            1.57970000000002     -1.76079999999999     -2.97630000000000
H            0.42400000000000     -1.80529999999999     -4.28520000000000
H            0.98630000000000     -4.04319999999999     -3.10940000000000
H            -0.01140000000000     -3.47390000000000     -1.77580000000000
H            0.05020000000000     -1.77280000000000     -0.14760000000000
H            -0.06350000000000     1.54970000000000     -0.26860000000000
H            1.07649999999999     0.73779999999998     -2.88100000000000
H            -0.65900000000002     1.27470000000002     -2.74000000000000
C            -1.09019999999999     -3.86789999999999     -3.60890000000002
H            -1.92520000000006     -3.16839999999994     -3.45260000000000
H            -0.88499999999999     -3.84910000000000     -4.69019999999998
C            -1.50760000000010     -5.26500000000002     -3.18279999999999
H            -2.38170000000000     -5.62259999999999     -3.73799999999998
H            -0.69380000000001     -5.98409999999998     -3.34259999999999
H            -1.75700000000000     -5.28949999999999     -2.11390000000000
Si            -0.01506071960418     -0.03648642728969     6.26108698391955
F            2.56784925622239     -3.45551410742152     8.14756905239769
F            0.56706716538388     -4.26998448061412     8.24647170892585
F            2.46018932470657     -2.56166622747081     10.66205865731275
F            0.35855526763730     -3.02305483381989     10.85093837115433
F            2.70192704494829     -5.44763318168668     9.88939337687539
F            0.69157929651850     -5.58321601984354     10.67425259012250
F            3.69831236108260     -4.49856758348985     12.11062861653240
F            1.76442953889266     -4.02588248969352     12.95297287641787
F            2.61044955180906     -7.26357835229292     11.90710588474755
F            1.06740801674555     -6.51673282051957     13.22946553933487
F            4.55124154281726     -6.57164479320823     13.60253025983120
F            3.21297102266965     -5.42520300347440     14.83896028048412
F            2.99232632580346     -7.55788701884084     14.70261518651684
N            1.98449999999997     0.00000000000001     -0.00000000000003
N            -1.98449999999996     0.00000000000005     0.00000000000001
C            -0.00059999999999     -0.00000000000000     1.60640000000002
C            1.16935243892072     -0.27890739016574     2.29089885039606
C            1.16639607838612     -0.26536772584725     3.67183592015411
C            -0.01190668883644     0.01837996528777     4.37332646711343
C            -1.17398140228279     0.32844474089339     3.65980398535455
C            -1.16297861261451     0.32785075014270     2.27834543717176
C            2.26788719033344     -0.63787680287885     1.33699922541009
C            2.47935998413958     1.38931876423521     0.11431248741014
C            2.90111482651970     -0.67194327909856     -0.94222580611672
C            -2.23535493748230     0.70636917091385     1.30679804665937
C            -2.60344916031326     -1.33678408212593     0.16134918636652
C            -2.82444704657566     0.72022689898168     -0.98062923586376
C            1.10515219164363     1.32432481151571     6.99757799860872
C            -1.77430169150295     0.13137259634925     6.97716896926207
C            0.68491459736293     -1.74783620397200     6.79319047128290
C            0.77779122869417     -1.89510008560062     8.30560945633522
C            1.34377816622321     -3.25416412572707     8.69267019207240
C            1.49833809789973     -3.40565643166588     10.23846783956835
C            1.82157901326037     -4.85694987943062     10.71068965131743
C            2.41376320883219     -4.89035505839660     12.15699179647820
C            2.32343484628407     -6.30720096471384     12.80380448557406
C            3.29500070434323     -6.46403588676688     14.01595956203268
H            2.07063114544939     -0.48936745390631     4.22139422518825
H            -2.08021774004308     0.56733745167721     4.19778334053341
H            2.24807752763699     -1.72263614023081     1.19444332471040
H            3.26548565392329     -0.34395663114093     1.68458263425886
H            2.28826050527990     1.93224343088427     -0.80730270960103
H            3.55653262213951     1.39431537914520     0.31863177029362
H            1.96079496065259     1.89494739355769     0.92383546187893
H            2.60032614238873     -1.71172365016394     -1.05579722448610
H            3.93470334787085     -0.64163012942788     -0.57580623797893
H            2.86925740233203     -0.17650679253187     -1.91144236778362
H            -2.15072545586569     1.78156056325972     1.12085930154343
H            -3.25126054352814     0.48848140583977     1.65637886007833
H            -3.68027241125862     -1.24824123852495     0.34550519513559
H            -2.13721807924679     -1.84703511272599     1.00021574915233
H            -2.44397797491847     -1.93517268243867     -0.73119794237883
H            -2.84750779540736     0.19287131486348     -1.93133464140137
H            -2.41913781742920     1.71656136068829     -1.14095292616525
H            -3.85397272286625     0.81286971439763     -0.61670390144670
H            1.05173016616001     1.34767970600108     8.08224861937254
H            0.81248778935904     2.30532543361931     6.63640057376976
H            2.14418313642479     1.17372133793701     6.72032867915908
H            -2.41960114908748     -0.67399700792649     6.63993138538176
H            -2.23121394049841     1.06855673157196     6.67653218296297
H            -1.76446700138745     0.11363845844640     8.06290937274676
H            0.05622476620292     -2.54493835642217     6.39761789559217
H            1.67567941366790     -1.89049527495267     6.36434527773374
H            1.43632785608451     -1.13493778281762     8.72747495061485
H            -0.20820497875015     -1.80591785190185     8.76216508390684

C F Si N H 0
6-31G**
******
Ir 0
SDD
******

Ir 0
SDD


