%nprocshared=12
%mem=24GB
# opt int=grid=ultrafine M06 gen pseudo=read

Title

-1 1
Ir            0.00000000000000     -0.00000000000000     -0.31210000000000
Si            0.02065050486805     -0.06824689510971     6.26626913751692
F            2.56792400466732     -3.52222577225320     8.17387731577647
F            0.54901760639245     -4.28664657116757     8.29895296786304
F            2.51260690076727     -2.60999113500643     10.67866879202322
F            0.39917474978785     -3.00155531155942     10.89425898165546
F            2.65006327368204     -5.51024213872344     9.92865894644894
F            0.64554380083680     -5.57060360467701     10.73773274070857
F            3.70449887901153     -4.57850485684397     12.12828336898612
F            1.79905780923199     -4.02756387330701     12.98840442882856
F            2.50637695863613     -7.30456405869902     11.96479966101240
F            1.01684603043442     -6.48409291471489     13.30471800214104
F            4.50109407781879     -6.67693617758232     13.61759892067332
F            3.23575093378995     -5.45862757250795     14.86234544523145
F            2.92260109007756     -7.58139401855247     14.75895966839444
N            1.98450000000000     0.00000000000003     -0.00000000000002
N            -1.98450000000001     0.00000000000001     0.00000000000000
C            -0.00060000000000     0.00000000000002     1.60640000000001
C            1.18735055594850     -0.25774000581922     2.30520239961960
C            1.18577000526826     -0.25997201314220     3.67782848291233
C            -0.00660529214405     -0.02761802451918     4.39289195835496
C            -1.19395480279394     0.22373356689588     3.67981272769990
C            -1.18975250066362     0.24668206094402     2.30639300655308
C            2.31249630249799     -0.57543460762608     1.35201962024783
C            2.43299316666762     1.40497074934836     0.01551360307306
C            2.78653304034291     -0.71291888007503     -1.00386339891655
C            -2.31448710101028     0.56938069591737     1.35417282429719
C            -2.43250050379808     -1.40497464254772     0.00761151257711
C            -2.78299737384771     0.71810771755324     -1.00294834835405
C            1.18439287136910     1.25486001719752     7.01505965089007
C            -1.71086585161757     0.14420118409514     7.03843005063521
C            0.69705948648000     -1.78739366726733     6.81779384375642
C            0.81689854709839     -1.91539862634602     8.32881954199330
C            1.35299229222441     -3.28265756528586     8.72547922017234
C            1.51884749711030     -3.42452774272705     10.27113842557223
C            1.79936198063392     -4.88127346861979     10.75306952001528
C            2.40672564710674     -4.92192241843443     12.19247648563044
C            2.27241806850288     -6.32782034193083     12.85506255612346
C            3.25817160206760     -6.51000828336717     14.05167800906061
H            2.09661576188881     -0.45381231352432     4.23029752422854
H            -2.10596838484345     0.40647709865771     4.23189567542263
H            2.37742328700589     -1.66153698045231     1.24215855554803
H            3.29027520905168     -0.20713930285585     1.68795524827357
H            2.19003583580160     1.89223806922700     -0.92741043190416
H            3.51906750979071     1.46785910828348     0.17101499609109
H            1.92864340509275     1.92626740043554     0.82500882845591
H            2.48383122680522     -1.75814831325320     -1.04204521418989
H            3.86013380062514     -0.66959653748542     -0.77275703239761
H            2.63313751694117     -0.26679518973555     -1.98806700577891
H            -2.38077272159816     1.65598729530126     1.24857856158805
H            -3.29209738696607     0.19828999308659     1.68762338131405
H            -3.51885053340890     -1.46916341710186     0.16053695463966
H            -1.92950995724890     -1.93004326269527     0.81547117691483
H            -2.18739479476689     -1.88742029262639     -0.93728197608791
H            -2.62556573625298     0.27750022999975     -1.98905804067994
H            -2.47992831839597     1.76349051959643     -1.03440229103870
H            -3.85761218861518     0.67348742222014     -0.77651534108998
H            1.12345455667309     1.28597528429866     8.09920329730936
H            0.93331317861439     2.24456928218437     6.64681843460862
H            2.21887824935149     1.06357144388049     6.74719817430971
H            -2.37058588428446     -0.67274481638913     6.76449718903416
H            -2.17303753281357     1.06710375566075     6.70495206947761
H            -1.66259139765987     0.18181836085404     8.12260953736861
H            0.04469991403882     -2.57620745794837     6.44527636970938
H            1.67524454767415     -1.95379215985521     6.36953643243362
H            1.50438541222759     -1.16754755164285     8.72582853475174
H            -0.15735714405749     -1.79186613030420     8.80238071432023

C F Si N H 0
6-31G**
******
Ir 0
SDD
******

Ir 0
SDD


