%nprocshared=12
%mem=24GB
# opt int=grid=ultrafine M06 gen pseudo=read

Title

-1 1
Ir            0.00000000000000     -0.00010000000000     -0.30910000000000
H            -0.02640000000000     0.73460000000000     -1.74220000000000
H            0.02630000000000     -0.73490000000001     -1.74210000000000
Si            0.02578660264849     -0.06096329530801     6.26527952869751
F            2.55114493868266     -3.51560975870415     8.15939954022945
F            0.53289571543901     -4.28248612509542     8.27898732189855
F            2.48485417558800     -2.60135849600067     10.66546354006824
F            0.37298100094288     -3.00379629636661     10.87342983394286
F            2.63682636726877     -5.50127323548912     9.91140454487816
F            0.63290788246135     -5.57114069885259     10.72047099075294
F            3.68685098150795     -4.56319835029520     12.11125766339732
F            1.77832467313166     -4.02326213136601     12.97102631202321
F            2.50503910559357     -7.29584668990257     11.94725782495136
F            1.01104253798407     -6.48537867797309     13.28803360155759
F            4.49641355904729     -6.65816947057515     13.59971295644078
F            3.22556419096580     -5.44528713630181     14.84402338767141
F            2.92372556358187     -7.56992124624854     14.74364210754464
N            1.98450000000001     -0.00000000000002     -0.00000000000002
N            -1.98449999999999     0.00000000000000     -0.00000000000000
C            -0.00060000000000     -0.00000000000001     1.60640000000000
C            1.16433656917417     -0.30645643812263     2.29235832957017
C            1.17091156429802     -0.31528204412484     3.67326044404360
C            -0.00698491577235     -0.03210106252119     4.37914531510244
C            -1.18011107016682     0.27091910928339     3.67689235675276
C            -1.16698303987274     0.29221248464565     2.29493570072799
C            2.28044638062611     -0.63335886505052     1.33506158092913
C            2.40875239345731     1.40947081523641     0.10671550491340
C            2.86588524895323     -0.64246275207008     -0.98905878374206
C            -2.27994335360249     0.63021614916257     1.33738144779276
C            -2.40587356705417     -1.41053348754956     0.10685504958889
C            -2.86989155930254     0.64121475324533     -0.98593342803679
C            1.20928499680554     1.27138260208095     6.95435623584261
C            -1.70274832444344     0.17529317417141     7.03203234786359
C            0.69229616115529     -1.78302350157123     6.80285733605622
C            0.79880274454445     -1.91301080583698     8.31472289555731
C            1.33588528371367     -3.28052439254061     8.71106756880947
C            1.49739982050292     -3.42224601377367     10.25609589165045
C            1.78386221971192     -4.87782627766436     10.73746680075107
C            2.39163510469020     -4.91508173600237     12.17667837685020
C            2.26566678389271     -6.32184123799047     12.83901888290448
C            3.25322415299464     -6.49816542527091     14.03527235871649
H            2.07592990286253     -0.54438055358145     4.22282277653403
H            -2.08625048574283     0.48788088572296     4.22747630454556
H            2.31235037678348     -1.71849357149630     1.18872641690097
H            3.27006570292700     -0.31413396060551     1.69193355656947
H            2.18715428044639     1.93276342681721     -0.82185037726627
H            3.48666737509583     1.47676771000948     0.30367560939939
H            1.87607279595394     1.89426148031145     0.92213140070089
H            2.58686486355174     -1.68827848366116     -1.10577276210709
H            3.91636689456790     -0.58385014356120     -0.67927064438224
H            2.75049660250164     -0.14704427457302     -1.95152156773105
H            -2.30510190802789     1.71594431703598     1.19427112436866
H            -3.27204392117786     0.31520754249920     1.69087158371496
H            -3.48313636095762     -1.47979807519292     0.30675559764444
H            -1.87055122594260     -1.89486288546122     0.92078621211845
H            -2.18598163975475     -1.93323174598442     -0.82236275404987
H            -2.75678007002666     0.14619836519450     -1.94883168374097
H            -2.59350953027647     1.68769751543578     -1.10305894314667
H            -3.91928480460920     0.58015919925309     -0.67276716828022
H            1.17183917388181     1.31802543834280     8.03892058115336
H            0.95151136459747     2.25649404365238     6.57770505182589
H            2.23773064932485     1.07345800612911     6.66730476559551
H            -2.37889551097437     -0.62621462722047     6.75059337675637
H            -2.14872399316005     1.11133074623418     6.71183447381468
H            -1.65147788294687     0.19886499151939     8.11645320863903
H            0.04161407066225     -2.57084416475645     6.42413688965938
H            1.67507639088804     -1.95163161176519     6.36472290718939
H            1.48069994846779     -1.16422446440912     8.71978998906189
H            -0.17964096065671     -1.79416481936870     8.78077666560280

C F Si N H 0
6-31G**
******
Ir 0
SDD
******

Ir 0
SDD


