%nprocshared=12
%mem=24GB
%chk=TS-1olefin-disso
# opt=(modredundant) int=grid=ultrafine M06 gen pseudo=read

Title

-1 1
Ir            -0.00409999999996     -0.00799999999999     -0.29060000000000
C            -0.06270000000004     0.40949999999998     -3.03609999999999
C            -0.55670000000003     -0.68530000000000     -3.62760000000001
H            -1.48990000000002     -0.59789999999999     -4.19480000000000
H            0.90839999999997     0.39159999999999     -2.53220000000000
C            0.10320000000006     -2.02019999999999     -3.67120000000000
H            0.90410000000000     -2.05870000000000     -2.92280000000001
H            -0.61710000000000     -2.80580000000000     -3.39270000000000
C            0.68210000000000     -2.33359999999999     -5.04960000000001
H            1.38720000000001     -1.53490000000000     -5.33200000000000
H            -0.11499999999999     -2.31610000000000     -5.81040000000000
C            1.39620000000005     -3.67630000000002     -5.07899999999999
H            0.68959999999998     -4.46879999999999     -4.78920000000001
H            2.18000000000003     -3.67720000000001     -4.30460000000000
H            -0.06590000000000     1.67850000000000     -0.25540000000000
H            0.04210000000000     -1.69950000000000     -0.34360000000000
C            2.00209999999988     -3.98780000000004     -6.43650000000000
H            2.51549999999995     -4.95509999999999     -6.44430000000000
H            1.22990000000004     -4.01480000000001     -7.21560000000003
H            2.73150000000002     -3.22130000000000     -6.72700000000000
H            -0.55459999999999     1.37560000000000     -3.11279999999999
Si            -0.01852417437660     -0.10436535170394     6.25445321881856
F            2.58371741183538     -3.49293627616496     8.16816716662948
F            0.58843918805232     -4.32069212240213     8.26745142639139
F            2.46527009823357     -2.58456218860695     10.67555496499487
F            0.36551489243918     -3.05511052382191     10.86311750886766
F            2.71984763178178     -5.47635453324229     9.92162221521982
F            0.71073841547026     -5.61354045134298     10.70884471543126
F            3.71586401542112     -4.50943678171303     12.13222123371171
F            1.78300333491692     -4.02793805831059     12.97219694200518
F            2.62546576759821     -7.27647284050351     11.95874699667593
F            1.08750806704870     -6.51487466669154     13.27851557861395
F            4.57199548338165     -6.57506334241789     13.63769242622792
F            3.24685044826539     -5.40164188480515     14.86301166848979
F            3.01353984572212     -7.53485233449665     14.76176886974966
N            1.98449999999996     0.00000000000000     0.00000000000000
N            -1.98449999999999     -0.00000000000001     -0.00000000000006
C            -0.00059999999998     0.00000000000001     1.60639999999999
C            1.16785689255422     -0.31669587574809     2.28414038211601
C            1.15681252700593     -0.33650440862227     3.66331694768430
C            -0.02163269218362     -0.05734337368233     4.36960789020126
C            -1.18785450206759     0.25554016205209     3.66014097168849
C            -1.17931313205681     0.29119888013859     2.28136094791254
C            2.25562285763136     -0.68293393304113     1.31750317717272
C            2.56623363539786     1.35418374584820     0.12726297565751
C            2.81436005860057     -0.71303409027320     -0.99211017649793
C            -2.26862624266742     0.66712539595742     1.31836644040125
C            -2.56664700972637     -1.35464721809737     0.10153442625784
C            -2.77344227098733     0.71118870011465     -1.02163433364912
C            1.09676861170473     1.26549095492665     6.98428834674047
C            -1.77355851191519     0.06045907270263     6.98230686565370
C            0.69442954917197     -1.80650864250911     6.79841594514438
C            0.78207321168286     -1.94408690323244     8.31176819564989
C            1.35680260694567     -3.29618330183634     8.70858326126392
C            1.50842969243361     -3.43602298712274     10.25550021265189
C            1.83764952055588     -4.88230362731066     10.73850111819825
C            2.43125740246812     -4.90060673738634     12.18437506490392
C            2.34205623734320     -6.31041380880991     12.84624980492527
C            3.31852848962122     -6.45388693224920     14.05611043535190
H            2.05676989765145     -0.58190940166685     4.21056431987115
H            -2.09592986753059     0.47282639478311     4.20391399891872
H            2.19391358295699     -1.76118479792697     1.14233290162258
H            3.26360469855766     -0.43404593489988     1.66919015524990
H            2.38600628793113     1.92963541162906     -0.77776663222371
H            3.64602454218356     1.29336591028272     0.30615718267542
H            2.09127762236246     1.87115393883666     0.95691023949987
H            2.40307948098857     -1.70752077029607     -1.15598268255259
H            3.84715714993414     -0.81002212121849     -0.63805591435757
H            2.83421763772628     -0.17263725191011     -1.93928411289258
H            -2.21658729603004     1.74780563853038     1.15674423675196
H            -3.27483717262038     0.40574094810954     1.66509804287266
H            -3.64794243661840     -1.29766454572313     0.27293450145531
H            -2.09642865624284     -1.88621656275794     0.92466015130198
H            -2.37542953715329     -1.90931138594782     -0.81341293272563
H            -2.68972419015032     0.19138040234529     -1.97493798359283
H            -2.38964183496890     1.72255369241170     -1.13558975631935
H            -3.83049321719580     0.76003096482846     -0.73630551993381
H            1.02918206837637     1.30903805989793     8.06761011447718
H            0.81229689879832     2.24052217007219     6.60123727735036
H            2.13880774978408     1.10674453694242     6.72341848088328
H            -2.41669903650175     -0.75211470273991     6.65877837214089
H            -2.23772570339110     0.99162498337696     6.67451019302030
H            -1.75566518325310     0.05514141580647     8.06815973725901
H            0.07490435482183     -2.61127778328740     6.40445885824713
H            1.68824452933006     -1.94181449329725     6.37465666504556
H            1.43247327254451     -1.17597845294677     8.73175329790723
H            -0.20658588233668     -1.86009273997829     8.76333266990877

B 1 2 F
B 1 3 F
B 2 3 F

C F Si N H 0
6-31G**
******
Ir 0
SDD
******

Ir 0
SDD

--Link1--
%nprocshared=12
%mem=24GB
%oldchk=TS-1olefin-disso
# opt(ts,readfc,nofreeze,noeigentest) guess=read geom=allchk freq int=grid=ultrafine M06 gen pseudo=read

C F Si N H 0
6-31G**
******
Ir 0
SDD
******

Ir 0
SDD


